# simulation_structure
1.000000
 25.8658399999999986   0.0000000000000000         0.0000000000
  0.0000000000000016  25.8658399999999986         0.0000000000
  0.0000000000000016   0.0000000000000016        25.8658400000
Zn Zn Zn Zn Zn Zn Zn Zn Zn Zn Zn Zn Zn Zn Zn Zn Zn Zn Zn Zn Zn Zn Zn Zn Zn Zn Zn Zn Zn Zn Zn Zn O O O O O O O O O O O O O O O O O O O O O O O O O O O O O O O O O O O O O O O O O O O O O O O O O O O O O O O O O O O O O O O O O O O O O O O O O O O O O O O O O O O O O O O O O O O O O O O O O O O O O O O O C C C C C C C C C C C C C C C C C C C C C C C C C C C C C C C C C C C C C C C C C C C C C C C C C C C C C C C C C C C C C C C C C C C C C C C C C C C C C C C C C C C C C C C C C C C C C C C C C C C C C C C C C C C C C C C C C C C C C C C C C C C C C C C C C C C C C C C C C C C C C C C C C C C C C C C C C C C C C C C C C C C C C C C C C C C C C C C C C C C C C C C C C C C C C C C C H H H H H H H H H H H H H H H H H H H H H H H H H H H H H H H H H H H H H H H H H H H H H H H H H H H H H H H H H H H H H H H H H H H H H H H H H H H H H H H H H H H H H H H H H H H H H H H H 
1 1 1 1 1 1 1 1 1 1 1 1 1 1 1 1 1 1 1 1 1 1 1 1 1 1 1 1 1 1 1 1 1 1 1 1 1 1 1 1 1 1 1 1 1 1 1 1 1 1 1 1 1 1 1 1 1 1 1 1 1 1 1 1 1 1 1 1 1 1 1 1 1 1 1 1 1 1 1 1 1 1 1 1 1 1 1 1 1 1 1 1 1 1 1 1 1 1 1 1 1 1 1 1 1 1 1 1 1 1 1 1 1 1 1 1 1 1 1 1 1 1 1 1 1 1 1 1 1 1 1 1 1 1 1 1 1 1 1 1 1 1 1 1 1 1 1 1 1 1 1 1 1 1 1 1 1 1 1 1 1 1 1 1 1 1 1 1 1 1 1 1 1 1 1 1 1 1 1 1 1 1 1 1 1 1 1 1 1 1 1 1 1 1 1 1 1 1 1 1 1 1 1 1 1 1 1 1 1 1 1 1 1 1 1 1 1 1 1 1 1 1 1 1 1 1 1 1 1 1 1 1 1 1 1 1 1 1 1 1 1 1 1 1 1 1 1 1 1 1 1 1 1 1 1 1 1 1 1 1 1 1 1 1 1 1 1 1 1 1 1 1 1 1 1 1 1 1 1 1 1 1 1 1 1 1 1 1 1 1 1 1 1 1 1 1 1 1 1 1 1 1 1 1 1 1 1 1 1 1 1 1 1 1 1 1 1 1 1 1 1 1 1 1 1 1 1 1 1 1 1 1 1 1 1 1 1 1 1 1 1 1 1 1 1 1 1 1 1 1 1 1 1 1 1 1 1 1 1 1 1 1 1 1 1 1 1 1 1 1 1 1 1 1 1 1 1 1 1 1 1 1 1 1 1 1 1 1 1 1 1 1 1 1 1 1 1 1 1 1 1 1 1 1 1 1 1 1 1 1 1 1 1 1 1 1 1 1 1 1 1 1 1 1 
Direct
0.2933670000000000 0.2933670000000000 0.2066330000000000
0.7066330000000000 0.7066330000000001 0.7933670000000000
0.7066330000000000 0.7066330000000001 0.2066330000000000
0.2933670000000000 0.2933670000000000 0.7933670000000000
0.7066330000000000 0.2933670000000000 0.7933670000000000
0.2933670000000000 0.7066330000000001 0.2066330000000000
0.2933670000000000 0.7066330000000001 0.7933670000000000
0.7066330000000000 0.2933670000000000 0.2066330000000000
0.2066330000000000 0.2933670000000000 0.2933670000000000
0.7933670000000000 0.7066330000000001 0.7066330000000001
0.2066330000000000 0.7066330000000001 0.7066330000000001
0.7933670000000002 0.2933670000000000 0.2933670000000000
0.7933670000000000 0.7066330000000001 0.2933670000000000
0.2066330000000000 0.2933670000000000 0.7066330000000001
0.7933670000000002 0.2933670000000000 0.7066330000000001
0.2066330000000000 0.7066330000000001 0.2933670000000000
0.2933670000000000 0.2066330000000000 0.2933670000000000
0.7066330000000000 0.7933670000000000 0.7066330000000001
0.7066330000000001 0.2066330000000000 0.7066330000000001
0.2933670000000000 0.7933670000000000 0.2933670000000000
0.2933669999999999 0.7933670000000000 0.7066330000000001
0.7066330000000001 0.2066330000000000 0.2933670000000000
0.7066330000000000 0.7933670000000000 0.2933670000000000
0.2933669999999999 0.2066330000000000 0.7066330000000001
0.2066330000000000 0.7933670000000000 0.7933670000000000
0.7933670000000002 0.2066330000000000 0.2066330000000000
0.2066330000000000 0.2066330000000000 0.2066330000000000
0.7933670000000000 0.7933670000000000 0.7933670000000000
0.7933670000000002 0.2066330000000000 0.7933670000000000
0.2066330000000000 0.7933670000000000 0.2066330000000000
0.7933670000000000 0.7933670000000000 0.2066330000000000
0.2066330000000000 0.2066330000000000 0.7933670000000000
0.2500000000000000 0.2500000000000000 0.2500000000000000
0.7500000000000000 0.7500000000000001 0.7500000000000001
0.7500000000000000 0.7500000000000001 0.2500000000000000
0.2499999999999999 0.2500000000000000 0.7500000000000001
0.7500000000000001 0.2500000000000000 0.7500000000000001
0.2500000000000000 0.7500000000000001 0.2500000000000000
0.2500000000000000 0.7500000000000001 0.7500000000000001
0.7500000000000001 0.2500000000000000 0.2500000000000000
0.2810420000000000 0.3663480000000000 0.2189580000000000
0.7189580000000000 0.6336520000000000 0.7810420000000000
0.7189580000000000 0.6336520000000000 0.2189580000000000
0.2810420000000000 0.3663480000000000 0.7810420000000000
0.7189580000000000 0.3663480000000000 0.7810420000000000
0.2810420000000000 0.6336520000000000 0.2189580000000000
0.2810420000000000 0.6336520000000000 0.7810420000000000
0.7189580000000000 0.3663480000000000 0.2189580000000000
0.2189580000000000 0.2810420000000001 0.3663480000000000
0.7810420000000000 0.7189580000000000 0.6336520000000000
0.2189580000000000 0.7189580000000000 0.6336520000000000
0.7810420000000000 0.2810420000000001 0.3663480000000000
0.7810420000000000 0.7189580000000000 0.3663480000000000
0.2189580000000000 0.2810420000000000 0.6336520000000000
0.7810420000000000 0.2810420000000000 0.6336520000000000
0.2189580000000000 0.7189580000000000 0.3663480000000000
0.3663480000000001 0.2189580000000000 0.2810420000000000
0.6336520000000000 0.7810420000000000 0.7189580000000000
0.6336520000000000 0.2189580000000000 0.7189580000000000
0.3663480000000000 0.7810420000000000 0.2810420000000000
0.3663480000000000 0.7810420000000000 0.7189580000000000
0.6336520000000000 0.2189580000000000 0.2810420000000000
0.6336520000000000 0.7810420000000000 0.2810420000000000
0.3663480000000001 0.2189580000000000 0.7189580000000000
0.3663480000000001 0.2810420000000000 0.7810420000000000
0.6336520000000000 0.7189580000000000 0.2189580000000000
0.6336520000000000 0.7189580000000000 0.7810420000000000
0.3663480000000001 0.2810420000000000 0.2189580000000000
0.3663480000000000 0.7189580000000000 0.2189580000000000
0.6336520000000000 0.2810420000000000 0.7810420000000000
0.6336520000000000 0.2810420000000000 0.2189580000000000
0.3663480000000000 0.7189580000000000 0.7810420000000000
0.2810420000000000 0.2189580000000000 0.6336520000000000
0.7189580000000000 0.7810420000000000 0.3663480000000000
0.7189580000000000 0.2189580000000000 0.3663480000000000
0.2810420000000000 0.7810420000000000 0.6336520000000000
0.7189580000000000 0.7810420000000000 0.6336520000000000
0.2810420000000001 0.2189580000000000 0.3663480000000000
0.2810420000000001 0.7810420000000000 0.3663480000000000
0.7189580000000000 0.2189580000000000 0.6336520000000000
0.2189580000000000 0.3663480000000000 0.7189580000000000
0.7810420000000000 0.6336520000000000 0.2810420000000000
0.2189580000000000 0.6336520000000000 0.2810420000000000
0.7810420000000000 0.3663480000000000 0.7189580000000000
0.7810420000000000 0.3663480000000000 0.2810420000000000
0.2189580000000000 0.6336520000000000 0.7189580000000000
0.7810420000000000 0.6336520000000000 0.7189580000000000
0.2189580000000000 0.3663480000000000 0.2810420000000000
0.2810420000000000 0.8663480000000000 0.7189580000000000
0.7189580000000000 0.1336520000000000 0.2810420000000000
0.7189580000000000 0.1336520000000000 0.7189580000000000
0.2810420000000001 0.8663480000000000 0.2810420000000000
0.7189580000000000 0.8663480000000000 0.2810420000000000
0.2810420000000000 0.1336520000000000 0.7189580000000000
0.2810420000000000 0.1336520000000000 0.2810420000000000
0.7189580000000000 0.8663480000000000 0.7189580000000000
0.2189580000000000 0.7810420000000000 0.8663480000000000
0.7810420000000000 0.2189580000000000 0.1336520000000000
0.2189580000000000 0.2189580000000000 0.1336520000000000
0.7810420000000000 0.7810420000000000 0.8663480000000000
0.7810420000000000 0.2189580000000000 0.8663480000000000
0.2189580000000000 0.7810420000000000 0.1336520000000000
0.7810420000000000 0.7810420000000000 0.1336520000000000
0.2189580000000000 0.2189580000000000 0.8663480000000000
0.2810420000000000 0.7189580000000000 0.1336520000000000
0.7189580000000000 0.2810420000000000 0.8663480000000000
0.7189580000000000 0.7189580000000000 0.8663480000000000
0.2810420000000000 0.2810420000000000 0.1336520000000000
0.7189580000000000 0.2810420000000000 0.1336520000000000
0.2810420000000000 0.7189580000000000 0.8663480000000000
0.2810420000000001 0.2810420000000000 0.8663480000000000
0.7189580000000000 0.7189580000000000 0.1336520000000000
0.2189580000000000 0.8663480000000000 0.2189580000000000
0.7810420000000000 0.1336520000000000 0.7810420000000000
0.2189580000000000 0.1336520000000000 0.7810420000000000
0.7810420000000000 0.8663480000000000 0.2189580000000000
0.7810420000000000 0.8663480000000000 0.7810420000000000
0.2189580000000000 0.1336520000000000 0.2189580000000000
0.7810420000000000 0.1336520000000000 0.2189580000000000
0.2189580000000000 0.8663480000000000 0.7810420000000000
0.8663480000000000 0.2189580000000000 0.7810420000000000
0.1336520000000000 0.7810420000000000 0.2189580000000000
0.1336520000000000 0.2189580000000000 0.2189580000000000
0.8663480000000001 0.7810420000000000 0.7810420000000000
0.8663480000000001 0.7810420000000000 0.2189580000000000
0.1336520000000000 0.2189580000000000 0.7810420000000000
0.1336520000000000 0.7810420000000000 0.7810420000000000
0.8663480000000000 0.2189580000000000 0.2189580000000000
0.8663480000000000 0.2810420000000001 0.2810420000000000
0.1336520000000000 0.7189580000000000 0.7189580000000000
0.1336520000000000 0.7189580000000000 0.2810420000000000
0.8663480000000000 0.2810420000000000 0.7189580000000000
0.8663480000000000 0.7189580000000000 0.7189580000000000
0.1336520000000000 0.2810420000000001 0.2810420000000000
0.1336520000000000 0.2810420000000000 0.7189580000000000
0.8663480000000000 0.7189580000000000 0.2810420000000000
0.2500000000000000 0.3886170000000000 0.2500000000000000
0.7500000000000000 0.6113830000000001 0.7500000000000001
0.7500000000000000 0.6113830000000000 0.2500000000000000
0.2500000000000000 0.3886170000000000 0.7500000000000001
0.7500000000000001 0.3886170000000000 0.7500000000000001
0.2500000000000000 0.6113830000000000 0.2500000000000000
0.2500000000000000 0.6113830000000001 0.7500000000000001
0.7500000000000001 0.3886170000000000 0.2500000000000000
0.2500000000000000 0.2500000000000001 0.3886170000000000
0.7500000000000000 0.7500000000000001 0.6113830000000000
0.2500000000000000 0.7500000000000001 0.6113830000000000
0.7500000000000001 0.2500000000000001 0.3886170000000000
0.7500000000000000 0.7500000000000001 0.3886170000000000
0.2500000000000000 0.2500000000000000 0.6113830000000000
0.7500000000000001 0.2500000000000000 0.6113830000000000
0.2500000000000001 0.7500000000000001 0.3886170000000000
0.3886170000000000 0.2500000000000000 0.2500000000000000
0.6113830000000001 0.7500000000000001 0.7500000000000001
0.6113830000000001 0.2500000000000000 0.7500000000000001
0.3886170000000000 0.7500000000000001 0.2500000000000000
0.3886170000000000 0.7500000000000001 0.7500000000000001
0.6113830000000000 0.2500000000000000 0.2500000000000000
0.6113830000000000 0.7500000000000001 0.2500000000000000
0.3886170000000000 0.2500000000000000 0.7500000000000001
0.2500000000000000 0.8886170000000000 0.7500000000000001
0.7500000000000001 0.1113830000000000 0.2500000000000000
0.7500000000000001 0.1113830000000000 0.7500000000000001
0.2500000000000000 0.8886170000000000 0.2500000000000000
0.7500000000000000 0.8886170000000000 0.2500000000000000
0.2500000000000000 0.1113830000000000 0.7500000000000001
0.2500000000000000 0.1113830000000000 0.2500000000000000
0.7500000000000000 0.8886170000000000 0.7500000000000001
0.2500000000000000 0.7500000000000001 0.8886170000000000
0.7500000000000001 0.2500000000000000 0.1113830000000000
0.2500000000000000 0.2500000000000000 0.1113830000000000
0.7500000000000000 0.7500000000000001 0.8886170000000000
0.7500000000000001 0.2500000000000000 0.8886170000000000
0.2500000000000000 0.7500000000000001 0.1113830000000000
0.7500000000000000 0.7500000000000001 0.1113830000000000
0.2500000000000000 0.2500000000000000 0.8886170000000000
0.8886170000000000 0.2500000000000000 0.7500000000000001
0.1113830000000000 0.7500000000000001 0.2500000000000000
0.1113830000000000 0.2500000000000000 0.2500000000000000
0.8886170000000000 0.7500000000000001 0.7500000000000001
0.8886170000000000 0.7500000000000001 0.2500000000000000
0.1113830000000000 0.2500000000000000 0.7500000000000001
0.1113830000000000 0.7500000000000001 0.7500000000000001
0.8886170000000000 0.2500000000000000 0.2500000000000000
0.2500000000000000 0.4461920000000000 0.2500000000000000
0.7500000000000000 0.5538080000000001 0.7500000000000001
0.7500000000000000 0.5538080000000000 0.2500000000000000
0.2500000000000000 0.4461920000000000 0.7500000000000001
0.7500000000000001 0.4461920000000000 0.7500000000000001
0.2500000000000000 0.5538080000000000 0.2500000000000000
0.2500000000000000 0.5538080000000001 0.7500000000000001
0.7500000000000001 0.4461920000000000 0.2500000000000000
0.2500000000000000 0.2500000000000001 0.4461920000000000
0.7500000000000000 0.7500000000000001 0.5538080000000000
0.2500000000000000 0.7500000000000001 0.5538080000000000
0.7500000000000001 0.2500000000000001 0.4461920000000000
0.7500000000000000 0.7500000000000001 0.4461920000000000
0.2500000000000000 0.2500000000000000 0.5538080000000000
0.7500000000000001 0.2500000000000000 0.5538080000000000
0.2500000000000001 0.7500000000000001 0.4461920000000000
0.4461920000000000 0.2500000000000000 0.2500000000000000
0.5538080000000001 0.7500000000000001 0.7500000000000001
0.5538080000000001 0.2500000000000000 0.7500000000000001
0.4461920000000000 0.7500000000000001 0.2500000000000000
0.4461920000000000 0.7500000000000001 0.7500000000000001
0.5538080000000000 0.2500000000000000 0.2500000000000000
0.5538080000000000 0.7500000000000001 0.2500000000000000
0.4461920000000000 0.2500000000000000 0.7500000000000001
0.2500000000000000 0.9461920000000000 0.7500000000000001
0.7500000000000001 0.0538080000000000 0.2500000000000000
0.7500000000000001 0.0538080000000000 0.7500000000000001
0.2500000000000000 0.9461920000000000 0.2500000000000000
0.7500000000000000 0.9461920000000000 0.2500000000000000
0.2500000000000000 0.0538080000000000 0.7500000000000001
0.2500000000000000 0.0538080000000000 0.2500000000000000
0.7500000000000000 0.9461920000000000 0.7500000000000001
0.2500000000000000 0.7500000000000000 0.9461920000000000
0.7500000000000001 0.2500000000000000 0.0538080000000000
0.2500000000000000 0.2500000000000000 0.0538080000000000
0.7499999999999999 0.7500000000000000 0.9461920000000000
0.7500000000000000 0.2500000000000000 0.9461920000000000
0.2500000000000000 0.7500000000000001 0.0538080000000000
0.7500000000000000 0.7500000000000001 0.0538080000000000
0.2500000000000000 0.2500000000000000 0.9461920000000000
0.9461920000000000 0.2500000000000000 0.7500000000000001
0.0538080000000000 0.7500000000000001 0.2500000000000000
0.0538080000000000 0.2500000000000000 0.2500000000000000
0.9461920000000000 0.7500000000000001 0.7500000000000001
0.9461920000000000 0.7500000000000001 0.2500000000000000
0.0538080000000000 0.2500000000000000 0.7500000000000001
0.0538080000000000 0.7500000000000001 0.7500000000000001
0.9461920000000000 0.2500000000000000 0.2500000000000000
0.2831670000000000 0.4731790000000001 0.2168330000000000
0.7168330000000001 0.5268210000000001 0.7831669999999999
0.7168330000000001 0.5268210000000000 0.2168330000000000
0.2831670000000000 0.4731790000000001 0.7831669999999999
0.7168330000000001 0.4731790000000001 0.7831669999999999
0.2831670000000000 0.5268210000000000 0.2168330000000000
0.2831670000000000 0.5268210000000001 0.7831669999999999
0.7168330000000001 0.4731790000000001 0.2168330000000000
0.2168330000000000 0.2831670000000000 0.4731790000000001
0.7831669999999999 0.7168330000000001 0.5268210000000000
0.2168330000000000 0.7168330000000001 0.5268210000000000
0.7831669999999999 0.2831670000000000 0.4731790000000001
0.7831669999999999 0.7168330000000001 0.4731790000000001
0.2168330000000000 0.2831670000000000 0.5268210000000000
0.7831669999999999 0.2831670000000000 0.5268210000000000
0.2168330000000000 0.7168330000000001 0.4731790000000001
0.4731790000000000 0.2168330000000000 0.2831670000000000
0.5268210000000001 0.7831669999999999 0.7168330000000001
0.5268210000000001 0.2168330000000000 0.7168330000000001
0.4731790000000000 0.7831669999999999 0.2831670000000000
0.4731790000000000 0.7831669999999999 0.7168330000000001
0.5268210000000000 0.2168330000000000 0.2831670000000000
0.5268210000000000 0.7831669999999999 0.2831670000000000
0.4731790000000001 0.2168330000000000 0.7168330000000001
0.4731790000000001 0.2831670000000000 0.7831669999999999
0.5268210000000000 0.7168330000000001 0.2168330000000000
0.5268210000000001 0.7168330000000001 0.7831669999999999
0.4731790000000000 0.2831670000000000 0.2168330000000000
0.4731790000000000 0.7168330000000001 0.2168330000000000
0.5268210000000001 0.2831670000000000 0.7831669999999999
0.5268210000000000 0.2831670000000000 0.2168330000000000
0.4731790000000000 0.7168330000000001 0.7831669999999999
0.2831669999999999 0.2168330000000000 0.5268210000000000
0.7168330000000001 0.7831669999999999 0.4731790000000001
0.7168330000000001 0.2168330000000000 0.4731790000000001
0.2831669999999999 0.7831669999999999 0.5268210000000000
0.7168330000000001 0.7831669999999999 0.5268210000000000
0.2831669999999999 0.2168330000000000 0.4731790000000001
0.2831669999999999 0.7831669999999999 0.4731790000000001
0.7168330000000001 0.2168330000000000 0.5268210000000000
0.2168330000000000 0.4731790000000001 0.7168330000000001
0.7831669999999999 0.5268210000000000 0.2831670000000000
0.2168330000000000 0.5268210000000000 0.2831670000000000
0.7831669999999999 0.4731790000000001 0.7168330000000001
0.7831669999999999 0.4731790000000001 0.2831670000000000
0.2168330000000000 0.5268210000000001 0.7168330000000001
0.7831669999999999 0.5268210000000001 0.7168330000000001
0.2168330000000000 0.4731790000000001 0.2831670000000000
0.2831670000000000 0.9731790000000000 0.7168330000000001
0.7168330000000001 0.0268210000000000 0.2831670000000000
0.7168330000000001 0.0268210000000000 0.7168330000000001
0.2831670000000001 0.9731790000000000 0.2831670000000000
0.7168330000000002 0.9731790000000000 0.2831670000000000
0.2831670000000000 0.0268210000000000 0.7168330000000001
0.2831670000000001 0.0268210000000000 0.2831670000000000
0.7168330000000002 0.9731790000000000 0.7168330000000001
0.2168330000000000 0.7831669999999998 0.9731790000000000
0.7831669999999999 0.2168330000000000 0.0268210000000000
0.2168330000000000 0.2168330000000000 0.0268210000000000
0.7831669999999998 0.7831669999999998 0.9731790000000000
0.7831669999999998 0.2168330000000000 0.9731790000000000
0.2168330000000000 0.7831669999999999 0.0268210000000000
0.7831669999999999 0.7831669999999999 0.0268210000000000
0.2168330000000000 0.2168330000000000 0.9731790000000000
0.2831670000000000 0.7168330000000001 0.0268210000000000
0.7168329999999999 0.2831670000000000 0.9731790000000000
0.7168329999999999 0.7168329999999999 0.9731790000000000
0.2831670000000000 0.2831670000000000 0.0268210000000000
0.7168330000000001 0.2831670000000000 0.0268210000000000
0.2831670000000000 0.7168329999999999 0.9731790000000000
0.2831670000000001 0.2831670000000000 0.9731790000000000
0.7168330000000001 0.7168330000000001 0.0268210000000000
0.2168330000000000 0.9731790000000000 0.2168330000000000
0.7831669999999999 0.0268210000000000 0.7831669999999999
0.2168330000000000 0.0268210000000000 0.7831669999999999
0.7831669999999999 0.9731790000000000 0.2168330000000000
0.7831669999999999 0.9731790000000000 0.7831669999999999
0.2168330000000000 0.0268210000000000 0.2168330000000000
0.7831669999999999 0.0268210000000000 0.2168330000000000
0.2168330000000000 0.9731790000000000 0.7831669999999999
0.9731790000000000 0.2168330000000000 0.7831669999999999
0.0268210000000000 0.7831669999999999 0.2168330000000000
0.0268210000000000 0.2168330000000000 0.2168330000000000
0.9731790000000000 0.7831669999999999 0.7831669999999999
0.9731790000000000 0.7831669999999999 0.2168330000000000
0.0268210000000000 0.2168330000000000 0.7831669999999999
0.0268210000000000 0.7831669999999999 0.7831669999999999
0.9731790000000000 0.2168330000000000 0.2168330000000000
0.9731790000000000 0.2831670000000001 0.2831670000000000
0.0268210000000000 0.7168330000000001 0.7168330000000001
0.0268210000000000 0.7168330000000001 0.2831670000000000
0.9731790000000000 0.2831670000000000 0.7168330000000001
0.9731790000000000 0.7168330000000001 0.7168330000000001
0.0268210000000000 0.2831670000000001 0.2831670000000000
0.0268210000000000 0.2831670000000000 0.7168330000000001
0.9731790000000000 0.7168330000000001 0.2831670000000000
0.3086900000000000 0.4511900000000000 0.1913100000000000
0.6913100000000000 0.5488100000000001 0.8086900000000000
0.6913100000000000 0.5488100000000000 0.1913100000000000
0.3086900000000000 0.4511900000000000 0.8086900000000000
0.6913100000000000 0.4511900000000000 0.8086900000000000
0.3086900000000000 0.5488100000000000 0.1913100000000000
0.3086900000000000 0.5488100000000001 0.8086900000000000
0.6913100000000000 0.4511900000000000 0.1913100000000000
0.1913100000000000 0.3086900000000000 0.4511900000000000
0.8086900000000000 0.6913100000000000 0.5488100000000000
0.1913100000000000 0.6913100000000000 0.5488100000000000
0.8086900000000000 0.3086900000000000 0.4511900000000000
0.8086900000000000 0.6913100000000000 0.4511900000000000
0.1913100000000000 0.3086900000000000 0.5488100000000000
0.8086900000000000 0.3086900000000000 0.5488100000000000
0.1913100000000000 0.6913100000000000 0.4511900000000000
0.4511900000000000 0.1913100000000000 0.3086900000000000
0.5488100000000001 0.8086900000000000 0.6913100000000000
0.5488100000000001 0.1913100000000000 0.6913100000000000
0.4511900000000000 0.8086900000000000 0.3086900000000000
0.4511900000000000 0.8086900000000000 0.6913100000000000
0.5488100000000000 0.1913100000000000 0.3086900000000000
0.5488100000000000 0.8086900000000000 0.3086900000000000
0.4511900000000000 0.1913100000000000 0.6913100000000000
0.4511900000000000 0.3086900000000000 0.8086900000000000
0.5488100000000000 0.6913100000000000 0.1913100000000000
0.5488100000000001 0.6913100000000000 0.8086900000000000
0.4511900000000000 0.3086900000000000 0.1913100000000000
0.4511900000000000 0.6913100000000000 0.1913100000000000
0.5488100000000001 0.3086900000000000 0.8086900000000000
0.5488100000000000 0.3086900000000000 0.1913100000000000
0.4511900000000000 0.6913100000000000 0.8086900000000000
0.3086900000000000 0.1913100000000000 0.5488100000000000
0.6913100000000001 0.8086900000000000 0.4511900000000000
0.6913100000000000 0.1913100000000000 0.4511900000000000
0.3086900000000000 0.8086900000000000 0.5488100000000000
0.6913100000000001 0.8086900000000000 0.5488100000000000
0.3086900000000001 0.1913100000000000 0.4511900000000000
0.3086900000000001 0.8086900000000000 0.4511900000000000
0.6913100000000000 0.1913100000000000 0.5488100000000000
0.1913100000000000 0.4511900000000000 0.6913100000000000
0.8086900000000000 0.5488100000000000 0.3086900000000000
0.1913100000000000 0.5488100000000000 0.3086900000000000
0.8086900000000000 0.4511900000000000 0.6913100000000000
0.8086900000000000 0.4511900000000000 0.3086900000000000
0.1913100000000000 0.5488100000000001 0.6913100000000000
0.8086900000000000 0.5488100000000001 0.6913100000000000
0.1913100000000000 0.4511900000000000 0.3086900000000000
0.3086900000000000 0.9511900000000000 0.6913100000000000
0.6913100000000000 0.0488100000000000 0.3086900000000000
0.6913100000000000 0.0488100000000000 0.6913100000000000
0.3086900000000001 0.9511900000000000 0.3086900000000000
0.6913100000000001 0.9511900000000000 0.3086900000000000
0.3086900000000000 0.0488100000000000 0.6913100000000000
0.3086900000000000 0.0488100000000000 0.3086900000000000
0.6913100000000001 0.9511900000000000 0.6913100000000000
0.1913100000000000 0.8086899999999999 0.9511900000000000
0.8086900000000000 0.1913100000000000 0.0488100000000000
0.1913100000000000 0.1913100000000000 0.0488100000000000
0.8086899999999999 0.8086899999999999 0.9511900000000000
0.8086899999999999 0.1913100000000000 0.9511900000000000
0.1913100000000000 0.8086900000000000 0.0488100000000000
0.8086900000000000 0.8086900000000000 0.0488100000000000
0.1913100000000000 0.1913100000000000 0.9511900000000000
0.3086900000000000 0.6913100000000000 0.0488100000000000
0.6913099999999999 0.3086900000000000 0.9511900000000000
0.6913099999999999 0.6913099999999999 0.9511900000000000
0.3086900000000000 0.3086900000000000 0.0488100000000000
0.6913100000000000 0.3086900000000000 0.0488100000000000
0.3086900000000001 0.6913099999999999 0.9511900000000000
0.3086900000000000 0.3086900000000000 0.9511900000000000
0.6913100000000000 0.6913100000000000 0.0488100000000000
0.1913100000000000 0.9511900000000000 0.1913100000000000
0.8086900000000000 0.0488100000000000 0.8086900000000000
0.1913100000000000 0.0488100000000000 0.8086900000000000
0.8086900000000000 0.9511900000000000 0.1913100000000000
0.8086900000000000 0.9511900000000000 0.8086900000000000
0.1913100000000000 0.0488100000000000 0.1913100000000000
0.8086900000000000 0.0488100000000000 0.1913100000000000
0.1913100000000000 0.9511900000000000 0.8086900000000000
0.9511900000000000 0.1913100000000000 0.8086900000000000
0.0488100000000000 0.8086900000000000 0.1913100000000000
0.0488100000000000 0.1913100000000000 0.1913100000000000
0.9511900000000000 0.8086900000000000 0.8086900000000000
0.9511900000000000 0.8086900000000000 0.1913100000000000
0.0488100000000000 0.1913100000000000 0.8086900000000000
0.0488100000000000 0.8086900000000000 0.8086900000000000
0.9511900000000000 0.1913100000000000 0.1913100000000000
0.9511900000000000 0.3086900000000000 0.3086900000000000
0.0488100000000000 0.6913100000000000 0.6913100000000000
0.0488100000000000 0.6913100000000000 0.3086900000000000
0.9511900000000000 0.3086900000000000 0.6913100000000000
0.9511900000000000 0.6913100000000000 0.6913100000000000
0.0488100000000000 0.3086900000000000 0.3086900000000000
0.0488100000000000 0.3086900000000000 0.6913100000000000
0.9511900000000000 0.6913100000000000 0.3086900000000000
