LAMMPS (29 Aug 2024 - Update 2)
# LAMMPS input script for GCMC simulation of CO2 in MOF-5

variable press equal ${p}
variable press equal 10.0

# --- Инициализация ---
units           real
atom_style      full
boundary        p p p

# --- Определение стилей потенциалов ---
# Важно: эти стили должны соответствовать формату коэффициентов в data.MOF5_charged_simple
# и добавленным коэффициентам для CO2.
pair_style      lj/cut/coul/long 12.0 # Катофф 12 Ангстрем для LJ и кулона
bond_style      harmonic
angle_style     hybrid fourier cosine/periodic harmonic # MOF-5 использует fourier и cosine/periodic, CO2 - harmonic
dihedral_style  harmonic # Предполагаем, что диэдрали в MOF-5 совместимы с harmonic (K d n)
improper_style  fourier # Предполагаем, что несобственные углы в MOF-5 совместимы с umbrella (K chi0)

# --- Чтение данных MOF-5 ---
# Добавляем 2 новых типа атомов (для C и O в CO2), 1 новый тип связи (C=O), 1 новый тип угла (O=C=O)
read_data       data.MOF5_charged_simple extra/atom/types 2 extra/bond/types 1 extra/angle/types 1
Reading data file ...
  triclinic box = (0 0 0) to (26.029363 26.031584 26.028346) with tilt (0.003152 -0.002169 0.002663)
  2 by 5 by 2 MPI processor grid
  reading atoms ...
  424 atoms
  scanning bonds ...
  4 = max bonds/atom
  scanning angles ...
  6 = max angles/atom
  scanning dihedrals ...
  8 = max dihedrals/atom
  scanning impropers ...
  3 = max impropers/atom
  triclinic box = (0 0 0) to (26.029363 26.031584 26.028346) with tilt (0.003152 -0.002169 0.002663)
  2 by 5 by 2 MPI processor grid
  reading bonds ...
  512 bonds
  reading angles ...
  912 angles
  reading dihedrals ...
  960 dihedrals
  reading impropers ...
  576 impropers
Finding 1-2 1-3 1-4 neighbors ...
  special bond factors lj:    0        0        0       
  special bond factors coul:  0        0        0       
     4 = max # of 1-2 neighbors
    12 = max # of 1-3 neighbors
    24 = max # of 1-4 neighbors
    22 = max # of special neighbors
  special bonds CPU = 0.001 seconds
  read_data CPU = 0.022 seconds

# --- Определение параметров для CO2 ---
# Массы для новых типов атомов (6: C_CO2, 7: O_CO2)
mass            6 12.011   # C in CO2
mass            7 15.9994  # O in CO2

# Pair Coeffs для CO2 (MOF-5 pair_coeffs читаются из data-файла)
# pair_coeff I J epsilon sigma
pair_coeff      6 6 0.0514 2.85    # C_CO2 - C_CO2
pair_coeff      7 7 0.1600 3.02    # O_CO2 - O_CO2

# Правила смешивания для межмолекулярных взаимодействий (например, MOF-CO2)
# Lorentz-Berthelot по умолчанию для lj/cut/coul/long
pair_modify     mix arithmetic

# Bond Coeffs для CO2 (тип связи 7)
# bond_coeff Type K r0
bond_coeff      7 1000.0 1.16   # C=O

# Angle Coeffs для CO2 (тип угла 10)
# angle_coeff Type K theta0 (для стиля harmonic)
angle_coeff     10 harmonic 100.0 180.0 # O=C=O

# --- Настройки дальнодействующих взаимодействий ---
kspace_style    pppm 1.0e-5

# --- Определение молекулы CO2 ---
molecule        co2mol CO2.txt
Read molecule template co2mol:
# CO2 molecule template for LAMMPS
  1 molecules
  0 fragments
  3 atoms with max type 7
  2 bonds with max type 7
  1 angles with max type 10
  0 dihedrals with max type 0
  0 impropers with max type 0

# --- Настройки GCMC ---
variable        T equal 273.0       # Температура в Кельвинах
variable        P equal 0.1         # Давление в атмосферах
variable        fug_coeff equal 1.0 # Коэффициент фугитивности (для идеального газа = 1.0)
variable        seed equal 12345    # Начальное число для генератора случайных чисел

# Группа для атомов CO2 (типы 6 и 7)
group           co2_atoms type 6 7
0 atoms in group co2_atoms


# Variables for analysis
variable N_co2  equal count(co2_atoms)/3
variable ads_density equal v_N_co2/vol

dump            dall all atom 100 dumps_T273K/dump_npt_${press}.lammpstrj
dump            dall all atom 100 dumps_T273K/dump_npt_10.lammpstrj

fix             mynpt all nvt temp 273.0 273.0 100.0

# Thermo output
thermo          100
thermo_style    custom step temp press vol density etotal
run             10000
PPPM initialization ...
WARNING: System is not charge neutral, net charge = 0.0008 (../kspace.cpp:327)
  using 12-bit tables for long-range coulomb (../kspace.cpp:342)
  G vector (1/distance) = 0.2438405
  grid = 16 16 16
  stencil order = 5
  estimated absolute RMS force accuracy = 0.002249822
  estimated relative force accuracy = 6.7752721e-06
  using double precision KISS FFT
  3d grid and FFT values/proc = 2250 256
Generated 21 of 21 mixed pair_coeff terms from arithmetic mixing rule
Neighbor list info ...
  update: every = 1 steps, delay = 0 steps, check = yes
  max neighbors/atom: 2000, page size: 100000
  master list distance cutoff = 14
  ghost atom cutoff = 14
  binsize = 7, bins = 4 4 4
  1 neighbor lists, perpetual/occasional/extra = 1 0 0
  (1) pair lj/cut/coul/long, perpetual
      attributes: half, newton on
      pair build: half/bin/newton/tri
      stencil: half/bin/3d/tri
      bin: standard
WARNING: Inconsistent image flags (../domain.cpp:1051)
Per MPI rank memory allocation (min/avg/max) = 13.24 | 13.45 | 13.94 Mbytes
   Step          Temp          Press          Volume        Density         TotEng    
         0   0             -31876.762      17636.431      0.57988585    -12893.244    
       100   210.16881     -30003.578      17636.431      0.57988585    -12871.589    
       200   260.74065     -36201.825      17636.431      0.57988585    -12854.357    
       300   229.25142     -30914.163      17636.431      0.57988585    -12843.399    
       400   331.52753     -39917.98       17636.431      0.57988585    -12829.576    
       500   352.90731     -35209.741      17636.431      0.57988585    -12835.495    
       600   368.86251     -31380.898      17636.431      0.57988585    -12825.379    
       700   296.7017      -25882.273      17636.431      0.57988585    -12840.3      
       800   382.41101     -28741.108      17636.431      0.57988585    -12844.203    
       900   332.04313     -31911.637      17636.431      0.57988585    -12835.609    
      1000   235.91716     -30239.955      17636.431      0.57988585    -12843.723    
      1100   285.28717     -33715.639      17636.431      0.57988585    -12833.271    
      1200   154.00462     -29548.696      17636.431      0.57988585    -12838.076    
      1300   239.05577     -32819.673      17636.431      0.57988585    -12839.068    
      1400   176.49302     -27790.715      17636.431      0.57988585    -12832.044    
      1500   241.49118     -30624.269      17636.431      0.57988585    -12841.411    
      1600   308.71125     -23180.139      17636.431      0.57988585    -12828.818    
      1700   306.72994     -35729.276      17636.431      0.57988585    -12840.011    
      1800   336.64499     -34452.961      17636.431      0.57988585    -12831.83     
      1900   327.48794     -35838.903      17636.431      0.57988585    -12836.817    
      2000   304.00828     -30724.962      17636.431      0.57988585    -12835.599    
      2100   304.96482     -34315.949      17636.431      0.57988585    -12836.56     
      2200   279.60707     -31039.769      17636.431      0.57988585    -12840.353    
      2300   292.08204     -31383.889      17636.431      0.57988585    -12826.543    
      2400   212.37899     -32972.582      17636.431      0.57988585    -12793.288    
      2500   271.94548     -33021.82       17636.431      0.57988585    -12801.195    
      2600   256.70199     -37512.381      17636.431      0.57988585    -12812.222    
      2700   219.78156     -34152.398      17636.431      0.57988585    -12845.519    
      2800   271.82123     -34257.578      17636.431      0.57988585    -12837.753    
      2900   314.87059     -28039.011      17636.431      0.57988585    -12847.457    
      3000   229.24186     -35369.161      17636.431      0.57988585    -12833.498    
      3100   308.65928     -27087.921      17636.431      0.57988585    -12820.524    
      3200   242.81888     -33371.086      17636.431      0.57988585    -12804.116    
      3300   307.01425     -31719.295      17636.431      0.57988585    -12807.438    
      3400   187.36661     -38476.963      17636.431      0.57988585    -12838.658    
      3500   225.23856     -32464.083      17636.431      0.57988585    -12844.601    
      3600   272.18294     -33746.793      17636.431      0.57988585    -12847.879    
      3700   239.74795     -28567.738      17636.431      0.57988585    -12834.594    
      3800   311.25952     -34843.056      17636.431      0.57988585    -12826.288    
      3900   269.67279     -34651.462      17636.431      0.57988585    -12833.336    
      4000   267.09766     -30789.996      17636.431      0.57988585    -12864.782    
      4100   271.28517     -32480.455      17636.431      0.57988585    -12872.223    
      4200   214.9928      -35968.207      17636.431      0.57988585    -12850.604    
      4300   312.29626     -34852.551      17636.431      0.57988585    -12823.207    
      4400   253.1109      -28323.86       17636.431      0.57988585    -12827.198    
      4500   239.15411     -32420.269      17636.431      0.57988585    -12831.75     
      4600   236.37088     -31567.934      17636.431      0.57988585    -12858.524    
      4700   239.43537     -37067.192      17636.431      0.57988585    -12861.818    
      4800   280.44861     -31933.548      17636.431      0.57988585    -12851.039    
      4900   262.89251     -35375.558      17636.431      0.57988585    -12850.657    
      5000   302.05799     -28526.681      17636.431      0.57988585    -12831.009    
      5100   276.62986     -34434.285      17636.431      0.57988585    -12827.804    
      5200   283.0855      -31350.397      17636.431      0.57988585    -12822.596    
      5300   317.67001     -32278.411      17636.431      0.57988585    -12843.527    
      5400   231.79196     -30558.947      17636.431      0.57988585    -12868.462    
      5500   309.04893     -35997.224      17636.431      0.57988585    -12855.521    
      5600   259.51403     -35917.317      17636.431      0.57988585    -12837.564    
      5700   318.37284     -33781.219      17636.431      0.57988585    -12830.565    
      5800   277.2725      -32445.945      17636.431      0.57988585    -12830.672    
      5900   295.63269     -30087.561      17636.431      0.57988585    -12845.642    
      6000   240.66865     -34321.266      17636.431      0.57988585    -12848.665    
      6100   242.69685     -31580.803      17636.431      0.57988585    -12859.98     
      6200   229.0487      -36467.439      17636.431      0.57988585    -12872.082    
      6300   260.21848     -31708.061      17636.431      0.57988585    -12858.392    
      6400   209.82257     -34715.064      17636.431      0.57988585    -12835.131    
      6500   283.96414     -29286.01       17636.431      0.57988585    -12823.338    
      6600   254.22148     -34305.939      17636.431      0.57988585    -12828.761    
      6700   240.95514     -30105.817      17636.431      0.57988585    -12841.98     
      6800   323.73014     -32889.298      17636.431      0.57988585    -12843.427    
      6900   254.61793     -31580.805      17636.431      0.57988585    -12850.353    
      7000   297.52631     -35711.275      17636.431      0.57988585    -12844.921    
      7100   294.46336     -32955.929      17636.431      0.57988585    -12843.969    
      7200   274.5909      -35437.046      17636.431      0.57988585    -12829.786    
      7300   281.97997     -32198.342      17636.431      0.57988585    -12823.485    
      7400   263.04529     -30434.142      17636.431      0.57988585    -12832.907    
      7500   267.61155     -31430.532      17636.431      0.57988585    -12860.244    
      7600   221.70506     -34454.309      17636.431      0.57988585    -12874.51     
      7700   298.78708     -34288.531      17636.431      0.57988585    -12863.382    
      7800   235.00712     -30765.582      17636.431      0.57988585    -12849.609    
      7900   266.23456     -35067.147      17636.431      0.57988585    -12841.009    
      8000   299.08841     -29676.054      17636.431      0.57988585    -12829.214    
      8100   280.73886     -32156.389      17636.431      0.57988585    -12825.873    
      8200   259.95766     -28432.691      17636.431      0.57988585    -12834.308    
      8300   291.24526     -34609.409      17636.431      0.57988585    -12852.621    
      8400   251.30721     -30571.046      17636.431      0.57988585    -12862.151    
      8500   249.81856     -36106.802      17636.431      0.57988585    -12845.817    
      8600   273.9227      -34228.091      17636.431      0.57988585    -12813.154    
      8700   295.07888     -35397.336      17636.431      0.57988585    -12812.252    
      8800   322.86606     -29766.076      17636.431      0.57988585    -12827.872    
      8900   298.05424     -33125.645      17636.431      0.57988585    -12849.079    
      9000   321.13971     -29603.213      17636.431      0.57988585    -12850.601    
      9100   235.81512     -33192.528      17636.431      0.57988585    -12843.71     
      9200   319.43396     -34580.546      17636.431      0.57988585    -12809.683    
      9300   334.07268     -34074.485      17636.431      0.57988585    -12781.634    
      9400   276.81797     -31114.915      17636.431      0.57988585    -12804.675    
      9500   312.41261     -32256.478      17636.431      0.57988585    -12820.455    
      9600   242.45885     -33222.201      17636.431      0.57988585    -12839.807    
      9700   276.69172     -29795.803      17636.431      0.57988585    -12853.921    
      9800   249.47156     -31522.048      17636.431      0.57988585    -12853.233    
      9900   233.84253     -32002.505      17636.431      0.57988585    -12834.139    
     10000   245.99777     -36504.963      17636.431      0.57988585    -12807.449    
Loop time of 2.29363 on 20 procs for 10000 steps with 424 atoms

Performance: 376.695 ns/day, 0.064 hours/ns, 4359.896 timesteps/s, 1.849 Matom-step/s
99.9% CPU use with 20 MPI tasks x no OpenMP threads

MPI task timing breakdown:
Section |  min time  |  avg time  |  max time  |%varavg| %total
---------------------------------------------------------------
Pair    | 0.014497   | 0.20021    | 0.44708    |  31.0 |  8.73
Bond    | 0.0049557  | 0.037853   | 0.075019   |  11.6 |  1.65
Kspace  | 1.1647     | 1.4181     | 1.6171     |  12.1 | 61.83
Neigh   | 0.0095629  | 0.010039   | 0.010559   |   0.2 |  0.44
Comm    | 0.50096    | 0.53592    | 0.56583    |   2.3 | 23.37
Output  | 0.0057244  | 0.0085435  | 0.011224   |   1.9 |  0.37
Modify  | 0.02003    | 0.0349     | 0.049439   |   4.0 |  1.52
Other   |            | 0.04804    |            |       |  2.09

Nlocal:           21.2 ave          41 max           1 min
Histogram: 4 3 1 0 1 2 1 0 3 5
Nghost:           1633 ave        1766 max        1457 min
Histogram: 8 0 0 0 0 0 0 0 5 7
Neighs:         2667.3 ave        5201 max         134 min
Histogram: 6 2 0 0 1 3 0 0 3 5

Total # of neighbors = 53346
Ave neighs/atom = 125.81604
Ave special neighs/atom = 12.943396
Neighbor list builds = 27
Dangerous builds = 0
unfix           mynpt


# Fix GCMC
# N: выполнять GCMC каждые N шагов
# Nexchange: количество попыток обмена (вставка/удаление)
# Ntranslate_rotate_mol: количество попыток трансляции/вращения молекулы
# Nrigidbody_... : 0, так как CO2 у нас гибкий
# mol co2mol: используемый шаблон молекулы
# full_energy: пересчитывать полную энергию системы (рекомендуется)
# pressure ${P}: давление (LAMMPS вычислит химический потенциал)
# displace: максимальное смещение для трансляции молекулы (в Ангстремах)
#fix             gcmc_run all gcmc 100 100 100 0 ${seed} ${T} ${P} ${fug_coeff} mol co2mol full_energy displace 0.5
fix             GCMC co2_atoms gcmc 100 1000 0 0 12345 273.0 -5.0 0.5 mol co2mol pressure ${press} full_energy group co2_atoms
fix             GCMC co2_atoms gcmc 100 1000 0 0 12345 273.0 -5.0 0.5 mol co2mol pressure 10 full_energy group co2_atoms

# --- Настройки вывода ---
#thermo_style    custom step temp press pe etotal natoms ncmc_insert ncmc_delete ncmc_trans ncmc_rotate ncmc_attempt ncmc_accept atoms_in_gcmc_mol


thermo          1000
thermo_style    custom step temp press v_N_co2 v_ads_density pe ke etotal
dump            gcmc_dump all atom 500 dumps_T273K/dump.gcmc_mof5_co2_${press}.lammpstrj
dump            gcmc_dump all atom 500 dumps_T273K/dump.gcmc_mof5_co2_10.lammpstrj

# --- Запуск симуляции ---
# Для GCMC обычно не нужен MD integrator для всей системы, если только не изучается динамика каркаса.
# Если каркас должен быть подвижен, добавьте fix nvt для атомов MOF-5.
# Например, если атомы MOF-5 должны оставаться фиксированными:
# group mof_atoms type <= 5
# fix freeze_mof mof_atoms setforce 0.0 0.0 0.0
# Однако, для GCMC лучше, чтобы каркас был термостатирован, если он не абсолютно жесткий.
# Если вы хотите просто провести GCMC без MD шагов для каркаса:
# run 0 post no # Это позволит fix gcmc работать без MD шагов
# Но обычно GCMC совмещают с MD:
timestep        1.0 # фемтосекунды (если есть MD)
run             100000 # Количество шагов GCMC/MD
WARNING: No fixes with time integration, atoms won't move (../verlet.cpp:60)
PPPM initialization ...
  using 12-bit tables for long-range coulomb (../kspace.cpp:342)
  G vector (1/distance) = 0.2438405
  grid = 16 16 16
  stencil order = 5
  estimated absolute RMS force accuracy = 0.002249822
  estimated relative force accuracy = 6.7752721e-06
  using double precision KISS FFT
  3d grid and FFT values/proc = 2250 256
Generated 21 of 21 mixed pair_coeff terms from arithmetic mixing rule
0 atoms in group FixGCMC:gcmc_exclusion_group:GCMC
0 atoms in group FixGCMC:rotation_gas_atoms:GCMC
WARNING: Neighbor exclusions used with KSpace solver may give inconsistent Coulombic energies (../neighbor.cpp:666)
WARNING: Inconsistent image flags (../domain.cpp:1051)
Per MPI rank memory allocation (min/avg/max) = 14.24 | 14.47 | 14.93 Mbytes
   Step          Temp          Press         v_N_co2     v_ads_density      PotEng         KinEng         TotEng    
     10000   245.99777     -36504.963      0              0             -13117.624      310.17432     -12807.449    
     11000   326.92113     -36119.723      121            0.0068607985  -13730.554      412.20918     -13318.345    
     12000   329.35251     -35801.133      125            0.0070876017  -13791.361      415.27486     -13376.086    
     13000   341.21762     -35544.465      140            0.007938114   -13878.995      430.23537     -13448.76     
     14000   345.25519     -35170.875      149            0.0084484213  -13944.182      435.32628     -13508.856    
     15000   344.46868     -35263.253      151            0.0085618229  -13973.383      434.33458     -13539.049    
     16000   347.38199     -35253.752      156            0.008845327   -14012.9        438.00793     -13574.892    
     17000   349.65224     -35217.817      156            0.008845327   -14018.804      440.87044     -13577.934    
     18000   350.43096     -35148.61       156            0.008845327   -14019.325      441.85232     -13577.472    
     19000   351.53305     -35005.719      158            0.0089587286  -14042.438      443.24192     -13599.196    
     20000   354.50072     -34835.367      161            0.009128831   -14056.792      446.9838      -13609.809    
     21000   355.48376     -34971.224      161            0.009128831   -14076.715      448.22331     -13628.492    
     22000   360.50541     -35033.472      166            0.0094123351  -14107.159      454.55501     -13652.604    
     23000   360.22023     -35051.001      166            0.0094123351  -14109.005      454.19544     -13654.81     
     24000   356.37126     -34853.678      164            0.0092989335  -14094.912      449.34234     -13645.569    
     25000   356.11218     -35243.871      164            0.0092989335  -14106.23       449.01566     -13657.215    
     26000   356.06611     -35078.847      165            0.0093556343  -14122.312      448.95758     -13673.355    
     27000   354.75042     -35064.733      165            0.0093556343  -14122.111      447.29865     -13674.812    
     28000   355.7791      -34886.929      165            0.0093556343  -14119.034      448.59569     -13670.438    
     29000   356.43423     -34741.089      167            0.0094690359  -14137.03       449.42174     -13687.608    
     30000   360.40741     -34118.158      169            0.0095824376  -14136.505      454.43145     -13682.074    
     31000   358.80959     -34374.537      169            0.0095824376  -14147.577      452.41679     -13695.16     
     32000   357.45013     -34503.96       167            0.0094690359  -14145.588      450.70267     -13694.885    
     33000   362.93053     -34457.37       170            0.0096391384  -14160.284      457.61281     -13702.671    
     34000   365.46115     -34505.263      170            0.0096391384  -14158.223      460.80362     -13697.419    
     35000   365.95781     -34355.504      173            0.0098092408  -14177.565      461.42985     -13716.135    
     36000   365.84446     -34333.383      170            0.0096391384  -14160.687      461.28693     -13699.4      
     37000   364.52228     -34383.1        169            0.0095824376  -14165.613      459.61982     -13705.993    
     38000   365.20764     -34255.964      172            0.00975254    -14178.618      460.48398     -13718.134    
     39000   366.30109     -34248.933      173            0.0098092408  -14180.998      461.86269     -13719.135    
     40000   366.87307     -34018.537      176            0.0099793433  -14204.247      462.58389     -13741.663    
     41000   367.90363     -33867.686      179            0.010149446   -14219.951      463.88331     -13756.067    
     42000   367.72124     -33943.115      178            0.010092745   -14224.557      463.65333     -13760.904    
     43000   365.32144     -34075.565      176            0.0099793433  -14217.071      460.62747     -13756.444    
     44000   365.32606     -33939.815      176            0.0099793433  -14222.971      460.63329     -13762.337    
     45000   366.22977     -33710.057      179            0.010149446   -14237.068      461.77277     -13775.295    
     46000   365.22554     -33807.443      179            0.010149446   -14248.218      460.50655     -13787.712    
     47000   365.07458     -33910.973      178            0.010092745   -14243.214      460.3162      -13782.898    
     48000   357.44117     -33934.787      174            0.0098659416  -14226.849      450.69137     -13776.158    
     49000   358.66929     -34049.621      175            0.0099226424  -14233.873      452.23989     -13781.634    
     50000   361.01158     -34136.884      178            0.010092745   -14253.416      455.19324     -13798.223    
     51000   359.99092     -34132.895      179            0.010149446   -14255.469      453.9063      -13801.563    
     52000   360.9908      -33864.447      184            0.01043295    -14281.261      455.16704     -13826.094    
     53000   358.30245     -34040.365      179            0.010149446   -14254.072      451.77734     -13802.295    
     54000   359.26246     -33905.268      180            0.010206147   -14260.556      452.9878      -13807.568    
     55000   359.28173     -34194.247      178            0.010092745   -14252.319      453.0121      -13799.307    
     56000   359.08997     -33996.646      176            0.0099793433  -14242.841      452.77031     -13790.071    
     57000   359.00089     -34131.273      176            0.0099793433  -14245.349      452.65799     -13792.691    
     58000   359.16949     -34283.217      175            0.0099226424  -14245.46       452.87058     -13792.589    
     59000   360.49802     -34221.84       178            0.010092745   -14259.276      454.5457      -13804.731    
     60000   361.96621     -34050.043      179            0.010149446   -14267.624      456.39692     -13811.227    
     61000   362.78354     -34001.684      181            0.010262847   -14273.61       457.42748     -13816.183    
     62000   363.28023     -34185.37       179            0.010149446   -14267.995      458.05374     -13809.941    
     63000   365.98075     -34035.447      182            0.010319548   -14277.477      461.45878     -13816.018    
     64000   363.82403     -34137.104      179            0.010149446   -14265.389      458.7394      -13806.649    
     65000   361.2777      -34147.294      177            0.010036044   -14258.362      455.52879     -13802.833    
     66000   363.70596     -34255.145      176            0.0099793433  -14254.177      458.59054     -13795.586    
     67000   366.13628     -34100.005      178            0.010092745   -14257.571      461.65488     -13795.916    
     68000   366.0723      -34171.818      178            0.010092745   -14261.595      461.57422     -13800.021    
     69000   368.67736     -34114.003      180            0.010206147   -14270.891      464.85889     -13806.032    
     70000   370.15682     -34153.116      178            0.010092745   -14261.784      466.72431     -13795.06     
     71000   364.62717     -34202.017      175            0.0099226424  -14247.657      459.75207     -13787.905    
     72000   366.70431     -33980.713      179            0.010149446   -14263.079      462.3711      -13800.708    
     73000   363.86362     -34160.91       176            0.0099793433  -14243.164      458.78932     -13784.375    
     74000   364.56956     -33941.228      180            0.010206147   -14262.929      459.67943     -13803.25     
     75000   362.88345     -34299.199      176            0.0099793433  -14256.019      457.55344     -13798.465    
     76000   366.92163     -34143.187      177            0.010036044   -14256.354      462.64512     -13793.709    
     77000   364.27192     -34235.915      178            0.010092745   -14268.817      459.30415     -13809.512    
     78000   368.76877     -34099.68       184            0.01043295    -14296.818      464.97414     -13831.844    
     79000   372.82516     -33850.638      185            0.010489651   -14306.86       470.08877     -13836.771    
     80000   369.51022     -34018.879      183            0.010376249   -14300.5        465.90902     -13834.591    
     81000   369.58301     -34038.77       182            0.010319548   -14296.832      466.00081     -13830.831    
     82000   367.74259     -34056.315      181            0.010262847   -14295.06       463.68025     -13831.379    
     83000   368.94337     -33970.251      185            0.010489651   -14317.744      465.1943      -13852.55     
     84000   363.61276     -33944.183      184            0.01043295    -14314.347      458.47302     -13855.874    
     85000   363.92345     -33964.99       183            0.010376249   -14310.296      458.86476     -13851.431    
     86000   366.44086     -33750.123      183            0.010376249   -14309.314      462.03892     -13847.275    
     87000   367.96112     -33821.203      185            0.010489651   -14318.629      463.95579     -13854.673    
     88000   368.28842     -33717.459      186            0.010546351   -14327.665      464.36848     -13863.297    
     89000   370.29108     -33664.285      187            0.010603052   -14333.384      466.89359     -13866.491    
     90000   370.19403     -33794.442      186            0.010546351   -14331.92       466.77123     -13865.148    
     91000   373.05574     -33762.04       190            0.010773155   -14350.06       470.37951     -13879.68     
     92000   370.91472     -33796.537      186            0.010546351   -14334.841      467.67994     -13867.161    
     93000   370.31873     -33860.967      186            0.010546351   -14333.385      466.92846     -13866.456    
     94000   367.39782     -33912.546      184            0.01043295    -14333.073      463.24554     -13869.827    
     95000   370.54177     -34011.861      186            0.010546351   -14342.483      467.20969     -13875.273    
     96000   367.84646     -34011.812      185            0.010489651   -14338.847      463.81122     -13875.035    
     97000   368.29534     -33983.365      187            0.010603052   -14348.913      464.3772      -13884.536    
     98000   368.61188     -34030.848      188            0.010659753   -14353.577      464.77633     -13888.8      
     99000   368.81104     -34028.058      187            0.010603052   -14347.524      465.02744     -13882.496    
    100000   370.15142     -33952.905      188            0.010659753   -14351.497      466.71751     -13884.78     
    101000   370.95753     -33806.822      191            0.010829855   -14375.319      467.73391     -13907.586    
    102000   372.1337      -33900.907      191            0.010829855   -14379.632      469.21693     -13910.416    
    103000   373.45364     -33923.475      193            0.010943257   -14387.986      470.88122     -13917.104    
    104000   371.36927     -33946.653      190            0.010773155   -14372.2        468.25307     -13903.947    
    105000   371.18407     -33787.621      189            0.010716454   -14369.238      468.01956     -13901.218    
    106000   370.49191     -33728.945      187            0.010603052   -14361.454      467.14683     -13894.308    
    107000   370.89743     -33724.37       188            0.010659753   -14364.509      467.65814     -13896.851    
    108000   371.96783     -33534.474      189            0.010716454   -14366.723      469.00778     -13897.716    
    109000   367.47797     -33585.121      185            0.010489651   -14348.073      463.3466      -13884.727    
    110000   367.73501     -33798.981      185            0.010489651   -14346.81       463.67069     -13883.14     
Loop time of 2247.55 on 20 procs for 100000 steps with 979 atoms

Performance: 3.844 ns/day, 6.243 hours/ns, 44.493 timesteps/s, 43.559 katom-step/s
100.0% CPU use with 20 MPI tasks x no OpenMP threads

MPI task timing breakdown:
Section |  min time  |  avg time  |  max time  |%varavg| %total
---------------------------------------------------------------
Pair    | 7.5241     | 12.591     | 17.223     |  75.6 |  0.56
Bond    | 0.078265   | 0.42736    | 0.77787    |  29.4 |  0.02
Kspace  | 15.438     | 20.468     | 26.216     |  60.6 |  0.91
Neigh   | 1.4365     | 1.4563     | 1.4824     |   1.2 |  0.06
Comm    | 7.9338     | 8.6871     | 9.2116     |  10.4 |  0.39
Output  | 0.093809   | 0.15233    | 0.18926    |   6.7 |  0.01
Modify  | 2203       | 2203       | 2203.1     |   0.1 | 98.02
Other   |            | 0.7488     |            |       |  0.03

Nlocal:          48.95 ave          65 max          34 min
Histogram: 3 3 1 0 3 2 2 3 1 2
Nghost:        3229.45 ave        3336 max        3083 min
Histogram: 1 4 2 1 0 0 0 5 5 2
Neighs:        15509.7 ave       20342 max       11004 min
Histogram: 3 3 1 0 2 3 3 2 1 2

Total # of neighbors = 310194
Ave neighs/atom = 316.8478
Ave special neighs/atom = 6.7395301
Neighbor list builds = 1001992
Dangerous builds = 0

# --- Завершение ---
print "GCMC simulation finished." 
GCMC simulation finished.
Total wall time: 0:37:29
