LAMMPS (29 Aug 2024 - Update 2)
# LAMMPS input script for GCMC simulation of CO2 in MOF-5

variable press equal ${p}
variable press equal 0.5

# --- Инициализация ---
units           real
atom_style      full
boundary        p p p

# --- Определение стилей потенциалов ---
# Важно: эти стили должны соответствовать формату коэффициентов в data.MOF5_charged_simple
# и добавленным коэффициентам для CO2.
pair_style      lj/cut/coul/long 12.0 # Катофф 12 Ангстрем для LJ и кулона
bond_style      harmonic
angle_style     hybrid fourier cosine/periodic harmonic # MOF-5 использует fourier и cosine/periodic, CO2 - harmonic
dihedral_style  harmonic # Предполагаем, что диэдрали в MOF-5 совместимы с harmonic (K d n)
improper_style  fourier # Предполагаем, что несобственные углы в MOF-5 совместимы с umbrella (K chi0)

# --- Чтение данных MOF-5 ---
# Добавляем 2 новых типа атомов (для C и O в CO2), 1 новый тип связи (C=O), 1 новый тип угла (O=C=O)
read_data       data.MOF5_charged_simple extra/atom/types 2 extra/bond/types 1 extra/angle/types 1
Reading data file ...
  triclinic box = (0 0 0) to (26.029363 26.031584 26.028346) with tilt (0.003152 -0.002169 0.002663)
  2 by 5 by 2 MPI processor grid
  reading atoms ...
  424 atoms
  scanning bonds ...
  4 = max bonds/atom
  scanning angles ...
  6 = max angles/atom
  scanning dihedrals ...
  8 = max dihedrals/atom
  scanning impropers ...
  3 = max impropers/atom
  triclinic box = (0 0 0) to (26.029363 26.031584 26.028346) with tilt (0.003152 -0.002169 0.002663)
  2 by 5 by 2 MPI processor grid
  reading bonds ...
  512 bonds
  reading angles ...
  912 angles
  reading dihedrals ...
  960 dihedrals
  reading impropers ...
  576 impropers
Finding 1-2 1-3 1-4 neighbors ...
  special bond factors lj:    0        0        0       
  special bond factors coul:  0        0        0       
     4 = max # of 1-2 neighbors
    12 = max # of 1-3 neighbors
    24 = max # of 1-4 neighbors
    22 = max # of special neighbors
  special bonds CPU = 0.001 seconds
  read_data CPU = 0.017 seconds

# --- Определение параметров для CO2 ---
# Массы для новых типов атомов (6: C_CO2, 7: O_CO2)
mass            6 12.011   # C in CO2
mass            7 15.9994  # O in CO2

# Pair Coeffs для CO2 (MOF-5 pair_coeffs читаются из data-файла)
# pair_coeff I J epsilon sigma
pair_coeff      6 6 0.0514 2.85    # C_CO2 - C_CO2
pair_coeff      7 7 0.1600 3.02    # O_CO2 - O_CO2

# Правила смешивания для межмолекулярных взаимодействий (например, MOF-CO2)
# Lorentz-Berthelot по умолчанию для lj/cut/coul/long
pair_modify     mix arithmetic

# Bond Coeffs для CO2 (тип связи 7)
# bond_coeff Type K r0
bond_coeff      7 1000.0 1.16   # C=O

# Angle Coeffs для CO2 (тип угла 10)
# angle_coeff Type K theta0 (для стиля harmonic)
angle_coeff     10 harmonic 100.0 180.0 # O=C=O

# --- Настройки дальнодействующих взаимодействий ---
kspace_style    pppm 1.0e-5

# --- Определение молекулы CO2 ---
molecule        co2mol CO2.txt
Read molecule template co2mol:
# CO2 molecule template for LAMMPS
  1 molecules
  0 fragments
  3 atoms with max type 7
  2 bonds with max type 7
  1 angles with max type 10
  0 dihedrals with max type 0
  0 impropers with max type 0

# --- Настройки GCMC ---
variable        T equal 273.0       # Температура в Кельвинах
variable        P equal 0.1         # Давление в атмосферах
variable        fug_coeff equal 1.0 # Коэффициент фугитивности (для идеального газа = 1.0)
variable        seed equal 12345    # Начальное число для генератора случайных чисел

# Группа для атомов CO2 (типы 6 и 7)
group           co2_atoms type 6 7
0 atoms in group co2_atoms


# Variables for analysis
variable N_co2  equal count(co2_atoms)/3
variable ads_density equal v_N_co2/vol

dump            dall all atom 100 dumps_T273K/dump_npt_${press}.lammpstrj
dump            dall all atom 100 dumps_T273K/dump_npt_0.5.lammpstrj

fix             mynpt all nvt temp 273.0 273.0 100.0

# Thermo output
thermo          100
thermo_style    custom step temp press vol density etotal
run             10000
PPPM initialization ...
WARNING: System is not charge neutral, net charge = 0.0008 (../kspace.cpp:327)
  using 12-bit tables for long-range coulomb (../kspace.cpp:342)
  G vector (1/distance) = 0.2438405
  grid = 16 16 16
  stencil order = 5
  estimated absolute RMS force accuracy = 0.002249822
  estimated relative force accuracy = 6.7752721e-06
  using double precision KISS FFT
  3d grid and FFT values/proc = 2250 256
Generated 21 of 21 mixed pair_coeff terms from arithmetic mixing rule
Neighbor list info ...
  update: every = 1 steps, delay = 0 steps, check = yes
  max neighbors/atom: 2000, page size: 100000
  master list distance cutoff = 14
  ghost atom cutoff = 14
  binsize = 7, bins = 4 4 4
  1 neighbor lists, perpetual/occasional/extra = 1 0 0
  (1) pair lj/cut/coul/long, perpetual
      attributes: half, newton on
      pair build: half/bin/newton/tri
      stencil: half/bin/3d/tri
      bin: standard
WARNING: Inconsistent image flags (../domain.cpp:1051)
Per MPI rank memory allocation (min/avg/max) = 13.24 | 13.45 | 13.94 Mbytes
   Step          Temp          Press          Volume        Density         TotEng    
         0   0             -31876.762      17636.431      0.57988585    -12893.244    
       100   210.16881     -30003.578      17636.431      0.57988585    -12871.589    
       200   260.74065     -36201.825      17636.431      0.57988585    -12854.357    
       300   229.25142     -30914.163      17636.431      0.57988585    -12843.399    
       400   331.52753     -39917.98       17636.431      0.57988585    -12829.576    
       500   352.90731     -35209.741      17636.431      0.57988585    -12835.495    
       600   368.86251     -31380.898      17636.431      0.57988585    -12825.379    
       700   296.7017      -25882.273      17636.431      0.57988585    -12840.3      
       800   382.41101     -28741.108      17636.431      0.57988585    -12844.203    
       900   332.04313     -31911.637      17636.431      0.57988585    -12835.609    
      1000   235.91716     -30239.955      17636.431      0.57988585    -12843.723    
      1100   285.28717     -33715.639      17636.431      0.57988585    -12833.271    
      1200   154.00462     -29548.696      17636.431      0.57988585    -12838.076    
      1300   239.05577     -32819.673      17636.431      0.57988585    -12839.068    
      1400   176.49302     -27790.715      17636.431      0.57988585    -12832.044    
      1500   241.49118     -30624.269      17636.431      0.57988585    -12841.411    
      1600   308.71125     -23180.139      17636.431      0.57988585    -12828.818    
      1700   306.72994     -35729.276      17636.431      0.57988585    -12840.011    
      1800   336.64499     -34452.961      17636.431      0.57988585    -12831.83     
      1900   327.48794     -35838.903      17636.431      0.57988585    -12836.817    
      2000   304.00828     -30724.962      17636.431      0.57988585    -12835.599    
      2100   304.96482     -34315.949      17636.431      0.57988585    -12836.56     
      2200   279.60707     -31039.769      17636.431      0.57988585    -12840.353    
      2300   292.08204     -31383.889      17636.431      0.57988585    -12826.543    
      2400   212.37899     -32972.582      17636.431      0.57988585    -12793.288    
      2500   271.94548     -33021.82       17636.431      0.57988585    -12801.195    
      2600   256.70199     -37512.381      17636.431      0.57988585    -12812.222    
      2700   219.78156     -34152.398      17636.431      0.57988585    -12845.519    
      2800   271.82123     -34257.578      17636.431      0.57988585    -12837.753    
      2900   314.87059     -28039.011      17636.431      0.57988585    -12847.457    
      3000   229.24186     -35369.161      17636.431      0.57988585    -12833.498    
      3100   308.65928     -27087.921      17636.431      0.57988585    -12820.524    
      3200   242.81888     -33371.086      17636.431      0.57988585    -12804.116    
      3300   307.01425     -31719.295      17636.431      0.57988585    -12807.438    
      3400   187.36661     -38476.963      17636.431      0.57988585    -12838.658    
      3500   225.23856     -32464.083      17636.431      0.57988585    -12844.601    
      3600   272.18294     -33746.793      17636.431      0.57988585    -12847.879    
      3700   239.74795     -28567.738      17636.431      0.57988585    -12834.594    
      3800   311.25952     -34843.056      17636.431      0.57988585    -12826.288    
      3900   269.67279     -34651.462      17636.431      0.57988585    -12833.336    
      4000   267.09766     -30789.996      17636.431      0.57988585    -12864.782    
      4100   271.28517     -32480.455      17636.431      0.57988585    -12872.223    
      4200   214.9928      -35968.207      17636.431      0.57988585    -12850.604    
      4300   312.29626     -34852.551      17636.431      0.57988585    -12823.207    
      4400   253.1109      -28323.86       17636.431      0.57988585    -12827.198    
      4500   239.15411     -32420.269      17636.431      0.57988585    -12831.75     
      4600   236.37088     -31567.934      17636.431      0.57988585    -12858.524    
      4700   239.43537     -37067.192      17636.431      0.57988585    -12861.818    
      4800   280.44861     -31933.548      17636.431      0.57988585    -12851.039    
      4900   262.89251     -35375.558      17636.431      0.57988585    -12850.657    
      5000   302.05799     -28526.681      17636.431      0.57988585    -12831.009    
      5100   276.62986     -34434.285      17636.431      0.57988585    -12827.804    
      5200   283.0855      -31350.397      17636.431      0.57988585    -12822.596    
      5300   317.67001     -32278.411      17636.431      0.57988585    -12843.527    
      5400   231.79196     -30558.947      17636.431      0.57988585    -12868.462    
      5500   309.04893     -35997.224      17636.431      0.57988585    -12855.521    
      5600   259.51403     -35917.317      17636.431      0.57988585    -12837.564    
      5700   318.37284     -33781.219      17636.431      0.57988585    -12830.565    
      5800   277.2725      -32445.945      17636.431      0.57988585    -12830.672    
      5900   295.63269     -30087.561      17636.431      0.57988585    -12845.642    
      6000   240.66865     -34321.266      17636.431      0.57988585    -12848.665    
      6100   242.69685     -31580.803      17636.431      0.57988585    -12859.98     
      6200   229.0487      -36467.439      17636.431      0.57988585    -12872.082    
      6300   260.21848     -31708.061      17636.431      0.57988585    -12858.392    
      6400   209.82257     -34715.064      17636.431      0.57988585    -12835.131    
      6500   283.96414     -29286.01       17636.431      0.57988585    -12823.338    
      6600   254.22148     -34305.939      17636.431      0.57988585    -12828.761    
      6700   240.95514     -30105.817      17636.431      0.57988585    -12841.98     
      6800   323.73014     -32889.298      17636.431      0.57988585    -12843.427    
      6900   254.61793     -31580.805      17636.431      0.57988585    -12850.353    
      7000   297.52631     -35711.275      17636.431      0.57988585    -12844.921    
      7100   294.46336     -32955.929      17636.431      0.57988585    -12843.969    
      7200   274.5909      -35437.046      17636.431      0.57988585    -12829.786    
      7300   281.97997     -32198.342      17636.431      0.57988585    -12823.485    
      7400   263.04529     -30434.142      17636.431      0.57988585    -12832.907    
      7500   267.61155     -31430.532      17636.431      0.57988585    -12860.244    
      7600   221.70506     -34454.309      17636.431      0.57988585    -12874.51     
      7700   298.78708     -34288.531      17636.431      0.57988585    -12863.382    
      7800   235.00712     -30765.582      17636.431      0.57988585    -12849.609    
      7900   266.23456     -35067.147      17636.431      0.57988585    -12841.009    
      8000   299.08841     -29676.054      17636.431      0.57988585    -12829.214    
      8100   280.73886     -32156.389      17636.431      0.57988585    -12825.873    
      8200   259.95766     -28432.691      17636.431      0.57988585    -12834.308    
      8300   291.24526     -34609.409      17636.431      0.57988585    -12852.621    
      8400   251.30721     -30571.046      17636.431      0.57988585    -12862.151    
      8500   249.81856     -36106.802      17636.431      0.57988585    -12845.817    
      8600   273.9227      -34228.091      17636.431      0.57988585    -12813.154    
      8700   295.07888     -35397.336      17636.431      0.57988585    -12812.252    
      8800   322.86606     -29766.076      17636.431      0.57988585    -12827.872    
      8900   298.05424     -33125.645      17636.431      0.57988585    -12849.079    
      9000   321.13971     -29603.213      17636.431      0.57988585    -12850.601    
      9100   235.81512     -33192.528      17636.431      0.57988585    -12843.71     
      9200   319.43396     -34580.546      17636.431      0.57988585    -12809.683    
      9300   334.07268     -34074.485      17636.431      0.57988585    -12781.634    
      9400   276.81797     -31114.915      17636.431      0.57988585    -12804.675    
      9500   312.41261     -32256.478      17636.431      0.57988585    -12820.455    
      9600   242.45885     -33222.201      17636.431      0.57988585    -12839.807    
      9700   276.69172     -29795.803      17636.431      0.57988585    -12853.921    
      9800   249.47156     -31522.048      17636.431      0.57988585    -12853.233    
      9900   233.84253     -32002.505      17636.431      0.57988585    -12834.139    
     10000   245.99777     -36504.963      17636.431      0.57988585    -12807.449    
Loop time of 2.30452 on 20 procs for 10000 steps with 424 atoms

Performance: 374.916 ns/day, 0.064 hours/ns, 4339.307 timesteps/s, 1.840 Matom-step/s
99.9% CPU use with 20 MPI tasks x no OpenMP threads

MPI task timing breakdown:
Section |  min time  |  avg time  |  max time  |%varavg| %total
---------------------------------------------------------------
Pair    | 0.014353   | 0.20288    | 0.47141    |  32.4 |  8.80
Bond    | 0.0048072  | 0.037673   | 0.075265   |  11.6 |  1.63
Kspace  | 1.1519     | 1.4322     | 1.6471     |  12.5 | 62.15
Neigh   | 0.0089296  | 0.0092836  | 0.0097646  |   0.3 |  0.40
Comm    | 0.4921     | 0.53326    | 0.57265    |   2.8 | 23.14
Output  | 0.0069371  | 0.010175   | 0.013486   |   2.0 |  0.44
Modify  | 0.02133    | 0.03519    | 0.049339   |   4.7 |  1.53
Other   |            | 0.04387    |            |       |  1.90

Nlocal:           21.2 ave          41 max           1 min
Histogram: 4 3 1 0 1 2 1 0 3 5
Nghost:           1633 ave        1766 max        1457 min
Histogram: 8 0 0 0 0 0 0 0 5 7
Neighs:         2667.3 ave        5201 max         134 min
Histogram: 6 2 0 0 1 3 0 0 3 5

Total # of neighbors = 53346
Ave neighs/atom = 125.81604
Ave special neighs/atom = 12.943396
Neighbor list builds = 27
Dangerous builds = 0
unfix           mynpt


# Fix GCMC
# N: выполнять GCMC каждые N шагов
# Nexchange: количество попыток обмена (вставка/удаление)
# Ntranslate_rotate_mol: количество попыток трансляции/вращения молекулы
# Nrigidbody_... : 0, так как CO2 у нас гибкий
# mol co2mol: используемый шаблон молекулы
# full_energy: пересчитывать полную энергию системы (рекомендуется)
# pressure ${P}: давление (LAMMPS вычислит химический потенциал)
# displace: максимальное смещение для трансляции молекулы (в Ангстремах)
#fix             gcmc_run all gcmc 100 100 100 0 ${seed} ${T} ${P} ${fug_coeff} mol co2mol full_energy displace 0.5
fix             GCMC co2_atoms gcmc 100 1000 0 0 12345 273.0 -5.0 0.5 mol co2mol pressure ${press} full_energy group co2_atoms
fix             GCMC co2_atoms gcmc 100 1000 0 0 12345 273.0 -5.0 0.5 mol co2mol pressure 0.5 full_energy group co2_atoms

# --- Настройки вывода ---
#thermo_style    custom step temp press pe etotal natoms ncmc_insert ncmc_delete ncmc_trans ncmc_rotate ncmc_attempt ncmc_accept atoms_in_gcmc_mol


thermo          1000
thermo_style    custom step temp press v_N_co2 v_ads_density pe ke etotal
dump            gcmc_dump all atom 500 dumps_T273K/dump.gcmc_mof5_co2_${press}.lammpstrj
dump            gcmc_dump all atom 500 dumps_T273K/dump.gcmc_mof5_co2_0.5.lammpstrj

# --- Запуск симуляции ---
# Для GCMC обычно не нужен MD integrator для всей системы, если только не изучается динамика каркаса.
# Если каркас должен быть подвижен, добавьте fix nvt для атомов MOF-5.
# Например, если атомы MOF-5 должны оставаться фиксированными:
# group mof_atoms type <= 5
# fix freeze_mof mof_atoms setforce 0.0 0.0 0.0
# Однако, для GCMC лучше, чтобы каркас был термостатирован, если он не абсолютно жесткий.
# Если вы хотите просто провести GCMC без MD шагов для каркаса:
# run 0 post no # Это позволит fix gcmc работать без MD шагов
# Но обычно GCMC совмещают с MD:
timestep        1.0 # фемтосекунды (если есть MD)
run             100000 # Количество шагов GCMC/MD
WARNING: No fixes with time integration, atoms won't move (../verlet.cpp:60)
PPPM initialization ...
  using 12-bit tables for long-range coulomb (../kspace.cpp:342)
  G vector (1/distance) = 0.2438405
  grid = 16 16 16
  stencil order = 5
  estimated absolute RMS force accuracy = 0.002249822
  estimated relative force accuracy = 6.7752721e-06
  using double precision KISS FFT
  3d grid and FFT values/proc = 2250 256
Generated 21 of 21 mixed pair_coeff terms from arithmetic mixing rule
0 atoms in group FixGCMC:gcmc_exclusion_group:GCMC
0 atoms in group FixGCMC:rotation_gas_atoms:GCMC
WARNING: Neighbor exclusions used with KSpace solver may give inconsistent Coulombic energies (../neighbor.cpp:666)
WARNING: Inconsistent image flags (../domain.cpp:1051)
Per MPI rank memory allocation (min/avg/max) = 14.24 | 14.47 | 14.93 Mbytes
   Step          Temp          Press         v_N_co2     v_ads_density      PotEng         KinEng         TotEng    
     10000   245.99777     -36504.963      0              0             -13117.624      310.17432     -12807.449    
     11000   296.20691     -36258.389      69             0.0039123562  -13546.458      373.48215     -13172.976    
     12000   296.49037     -36104.756      76             0.0043092619  -13599.318      373.83957     -13225.478    
     13000   313.18693     -35782.182      98             0.0055566798  -13751.564      394.89196     -13356.672    
     14000   310.92303     -35985.708      96             0.0054432781  -13767.648      392.03746     -13375.61     
     15000   325.12172     -35941.922      110            0.0062370895  -13859.592      409.94033     -13449.651    
     16000   323.01471     -35677.33       111            0.0062937903  -13865.806      407.28365     -13458.522    
     17000   327.95042     -35826.205      112            0.0063504912  -13872.442      413.50699     -13458.935    
     18000   324.18854     -35807.153      115            0.0065205936  -13892.353      408.76371     -13483.589    
     19000   326.48394     -35961.316      113            0.006407192   -13870.418      411.65794     -13458.76     
     20000   327.18374     -35651.765      116            0.0065772944  -13884.637      412.5403      -13472.097    
     21000   328.02678     -35461.379      121            0.0068607985  -13955.562      413.60328     -13541.959    
     22000   328.03247     -35790.785      120            0.0068040977  -13939.346      413.61045     -13525.735    
     23000   324.73097     -35717.401      118            0.006690696   -13931.862      409.44765     -13522.414    
     24000   333.20129     -35582.256      130            0.0073711058  -14004.818      420.12773     -13584.69     
     25000   325.40106     -35623.348      124            0.0070309009  -13976.214      410.29256     -13565.921    
     26000   320.99265     -35466.828      120            0.0068040977  -13945.979      404.73407     -13541.244    
     27000   326.21536     -35293.786      119            0.0067473969  -13947.799      411.31929     -13536.48     
     28000   327.50134     -35356.485      122            0.0069174993  -13963.194      412.94075     -13550.253    
     29000   322.96498     -35353.919      116            0.0065772944  -13942.294      407.22094     -13535.073    
     30000   329.32611     -35470.347      130            0.0073711058  -14012.192      415.24158     -13596.951    
     31000   326.8456      -35429.966      126            0.0071443026  -14002.313      412.11395     -13590.199    
     32000   329.25394     -35536.678      131            0.0074278066  -14030.402      415.15058     -13615.251    
     33000   326.78923     -35443.156      128            0.0072577042  -14007.479      412.04287     -13595.436    
     34000   323.73306     -35301.846      119            0.0067473969  -13967.171      408.1894      -13558.981    
     35000   325.69125     -35442.883      128            0.0072577042  -14016.211      410.65845     -13605.552    
     36000   326.11397     -35470.33       124            0.0070309009  -13999.667      411.19145     -13588.476    
     37000   331.20018     -35502.95       124            0.0070309009  -14001.979      417.60456     -13584.375    
     38000   328.81368     -35393.878      130            0.0073711058  -14041.689      414.59546     -13627.094    
     39000   333.93017     -35370.266      135            0.0076546099  -14085.491      421.04676     -13664.445    
     40000   333.97553     -35368.912      135            0.0076546099  -14091.681      421.10395     -13670.577    
     41000   338.26474     -35450.179      139            0.0078814131  -14124.141      426.51214     -13697.628    
     42000   335.3478      -35421.081      141            0.0079948148  -14140.093      422.83422     -13717.259    
     43000   334.44362     -35272.953      142            0.0080515156  -14142.684      421.69416     -13720.99     
     44000   346.57719     -35085.813      147            0.0083350197  -14171.903      436.99316     -13734.91     
     45000   338.80654     -35284.13       144            0.0081649172  -14155.999      427.19528     -13728.804    
     46000   331.37457     -35290.942      136            0.0077113107  -14115.436      417.82445     -13697.612    
     47000   336.37352     -35213.784      142            0.0080515156  -14147.15       424.12754     -13723.023    
     48000   342.37332     -35271.794      146            0.0082783188  -14168.905      431.69257     -13737.212    
     49000   337.78646     -35356.4        139            0.0078814131  -14135.737      425.90909     -13709.828    
     50000   339.6145      -35508.217      141            0.0079948148  -14137.778      428.21404     -13709.564    
     51000   339.67607     -35496.987      149            0.0084484213  -14179.756      428.29167     -13751.464    
     52000   336.572       -35325.436      144            0.0081649172  -14156.637      424.37779     -13732.259    
     53000   341.92914     -35298.171      143            0.0081082164  -14149.622      431.13253     -13718.49     
     54000   335.55349     -35352.543      136            0.0077113107  -14104.134      423.09357     -13681.04     
     55000   338.82686     -35297.753      140            0.007938114   -14133.17       427.22091     -13705.949    
     56000   338.54762     -35173.013      143            0.0081082164  -14163.978      426.86882     -13737.109    
     57000   338.16581     -35250.941      142            0.0080515156  -14163.886      426.38741     -13737.499    
     58000   334.44266     -35109.116      141            0.0079948148  -14161.586      421.69295     -13739.893    
     59000   341.29657     -34936.741      148            0.0083917205  -14207.614      430.33493     -13777.279    
     60000   340.27094     -35032.728      146            0.0082783188  -14198.64       429.04173     -13769.598    
     61000   342.02065     -34841.014      147            0.0083350197  -14212.292      431.24791     -13781.045    
     62000   343.31459     -34944.513      149            0.0084484213  -14228.802      432.87942     -13795.923    
     63000   345.52781     -34929.442      153            0.0086752245  -14247.175      435.67002     -13811.505    
     64000   345.47761     -35188.175      145            0.008221618   -14192.975      435.60672     -13757.368    
     65000   342.02215     -35200.358      144            0.0081649172  -14195.521      431.24979     -13764.272    
     66000   341.95839     -34831.329      144            0.0081649172  -14188.402      431.1694      -13757.233    
     67000   341.56726     -34925.959      143            0.0081082164  -14190.905      430.67623     -13760.228    
     68000   347.57026     -34926.665      148            0.0083917205  -14219.311      438.24532     -13781.066    
     69000   345.1605      -34852.457      149            0.0084484213  -14228.744      435.20689     -13793.537    
     70000   346.50545     -34881.564      148            0.0083917205  -14222.212      436.90272     -13785.309    
     71000   346.56589     -34973.275      148            0.0083917205  -14222.044      436.97891     -13785.066    
     72000   346.48998     -34871.546      146            0.0082783188  -14206.609      436.88321     -13769.726    
     73000   345.45099     -35008.347      149            0.0084484213  -14218.708      435.57316     -13783.134    
     74000   345.76838     -34904.949      150            0.0085051221  -14232.878      435.97335     -13796.905    
     75000   345.83266     -34984.11       146            0.0082783188  -14204.646      436.05441     -13768.592    
     76000   346.10665     -34891.108      149            0.0084484213  -14224.351      436.39987     -13787.951    
     77000   344.58093     -35153.943      147            0.0083350197  -14213.155      434.47612     -13778.679    
     78000   343.30146     -35170.323      145            0.008221618   -14211.434      432.86286     -13778.571    
     79000   350.22872     -35133.36       153            0.0086752245  -14252.398      441.59731     -13810.801    
     80000   349.58957     -34876.255      154            0.0087319253  -14260.939      440.79142     -13820.148    
     81000   346.51302     -34683.373      150            0.0085051221  -14255.593      436.91225     -13818.68     
     82000   345.73452     -34782.654      151            0.0085618229  -14248.282      435.93066     -13812.351    
     83000   341.24377     -34661.311      144            0.0081649172  -14214.853      430.26835     -13784.584    
     84000   345.97261     -34636.477      153            0.0086752245  -14270.094      436.23086     -13833.863    
     85000   345.26259     -34721.475      153            0.0086752245  -14262.116      435.33561     -13826.781    
     86000   349.68023     -34658.696      153            0.0086752245  -14260.927      440.90573     -13820.021    
     87000   348.175       -34594.387      151            0.0085618229  -14255.231      439.00782     -13816.223    
     88000   351.75989     -34449.467      153            0.0086752245  -14269.164      443.52794     -13825.636    
     89000   352.76406     -34517.881      154            0.0087319253  -14277.034      444.79409     -13832.24     
     90000   348.3523      -34411.037      156            0.008845327   -14283.476      439.23138     -13844.245    
     91000   347.0865      -34547.573      155            0.0087886262  -14279.389      437.63535     -13841.754    
     92000   341.86467     -34513.313      150            0.0085051221  -14254.437      431.05123     -13823.386    
     93000   347.81553     -34655.458      154            0.0087319253  -14279.211      438.55457     -13840.657    
     94000   349.9692      -34681.513      152            0.0086185237  -14271.125      441.27009     -13829.855    
     95000   347.37701     -34539.832      152            0.0086185237  -14277.895      438.00164     -13839.893    
     96000   352.72272     -34455.856      158            0.0089587286  -14308.232      444.74196     -13863.49     
     97000   356.50651     -34489.908      159            0.0090154294  -14313.247      449.51287     -13863.734    
     98000   353.24809     -34552.059      157            0.0089020278  -14304.429      445.40439     -13859.024    
     99000   349.38014     -34491.998      151            0.0085618229  -14268.557      440.52736     -13828.03     
    100000   350.90582     -34290.286      157            0.0089020278  -14299.324      442.45106     -13856.873    
    101000   351.83431     -34353.738      158            0.0089587286  -14303.738      443.62178     -13860.116    
    102000   348.31509     -34227.435      155            0.0087886262  -14286.024      439.18446     -13846.839    
    103000   351.08148     -34297.316      160            0.0090721302  -14317.655      442.67255     -13874.983    
    104000   346.16962     -34132.2        151            0.0085618229  -14269.365      436.47927     -13832.886    
    105000   349.31448     -34467.607      154            0.0087319253  -14285.855      440.44456     -13845.41     
    106000   353.22051     -34353.626      156            0.008845327   -14304.077      445.36961     -13858.708    
    107000   351.01127     -34336.147      158            0.0089587286  -14315.924      442.58402     -13873.34     
    108000   351.62231     -34221.252      156            0.008845327   -14303.359      443.35446     -13860.004    
    109000   354.73144     -34126.346      157            0.0089020278  -14308.653      447.27471     -13861.378    
    110000   350.43516     -34244.126      158            0.0089587286  -14319.726      441.85762     -13877.869    
Loop time of 2100.01 on 20 procs for 100000 steps with 898 atoms

Performance: 4.114 ns/day, 5.833 hours/ns, 47.619 timesteps/s, 42.762 katom-step/s
100.0% CPU use with 20 MPI tasks x no OpenMP threads

MPI task timing breakdown:
Section |  min time  |  avg time  |  max time  |%varavg| %total
---------------------------------------------------------------
Pair    | 5.6694     | 9.7259     | 16.943     |  94.9 |  0.46
Bond    | 0.062033   | 0.41702    | 0.79358    |  32.8 |  0.02
Kspace  | 13.167     | 20.622     | 25.148     |  67.1 |  0.98
Neigh   | 1.3379     | 1.3641     | 1.3847     |   1.2 |  0.06
Comm    | 8.2037     | 8.7065     | 9.2375     |   9.6 |  0.41
Output  | 0.090048   | 0.14728    | 0.18578    |   6.6 |  0.01
Modify  | 2058.3     | 2058.4     | 2058.4     |   0.1 | 98.02
Other   |            | 0.6676     |            |       |  0.03

Nlocal:           44.9 ave          63 max          28 min
Histogram: 2 0 7 0 2 1 1 3 3 1
Nghost:        3001.15 ave        3133 max        2843 min
Histogram: 6 2 0 0 0 0 0 2 6 4
Neighs:        12973.5 ave       18141 max        8258 min
Histogram: 2 1 6 0 2 1 2 4 1 1

Total # of neighbors = 259471
Ave neighs/atom = 288.94321
Ave special neighs/atom = 7.1670379
Neighbor list builds = 1001992
Dangerous builds = 0

# --- Завершение ---
print "GCMC simulation finished." 
GCMC simulation finished.
Total wall time: 0:35:02
