LAMMPS (29 Aug 2024 - Update 2)
# LAMMPS input script for GCMC simulation of CO2 in MOF-5

variable press equal ${p}
variable press equal 0.1

# --- Инициализация ---
units           real
atom_style      full
boundary        p p p

# --- Определение стилей потенциалов ---
# Важно: эти стили должны соответствовать формату коэффициентов в data.MOF5_charged_simple
# и добавленным коэффициентам для CO2.
pair_style      lj/cut/coul/long 12.0 # Катофф 12 Ангстрем для LJ и кулона
bond_style      harmonic
angle_style     hybrid fourier cosine/periodic harmonic # MOF-5 использует fourier и cosine/periodic, CO2 - harmonic
dihedral_style  harmonic # Предполагаем, что диэдрали в MOF-5 совместимы с harmonic (K d n)
improper_style  fourier # Предполагаем, что несобственные углы в MOF-5 совместимы с umbrella (K chi0)

# --- Чтение данных MOF-5 ---
# Добавляем 2 новых типа атомов (для C и O в CO2), 1 новый тип связи (C=O), 1 новый тип угла (O=C=O)
read_data       data.MOF5_charged_simple extra/atom/types 2 extra/bond/types 1 extra/angle/types 1
Reading data file ...
  triclinic box = (0 0 0) to (26.029363 26.031584 26.028346) with tilt (0.003152 -0.002169 0.002663)
  2 by 5 by 2 MPI processor grid
  reading atoms ...
  424 atoms
  scanning bonds ...
  4 = max bonds/atom
  scanning angles ...
  6 = max angles/atom
  scanning dihedrals ...
  8 = max dihedrals/atom
  scanning impropers ...
  3 = max impropers/atom
  triclinic box = (0 0 0) to (26.029363 26.031584 26.028346) with tilt (0.003152 -0.002169 0.002663)
  2 by 5 by 2 MPI processor grid
  reading bonds ...
  512 bonds
  reading angles ...
  912 angles
  reading dihedrals ...
  960 dihedrals
  reading impropers ...
  576 impropers
Finding 1-2 1-3 1-4 neighbors ...
  special bond factors lj:    0        0        0       
  special bond factors coul:  0        0        0       
     4 = max # of 1-2 neighbors
    12 = max # of 1-3 neighbors
    24 = max # of 1-4 neighbors
    22 = max # of special neighbors
  special bonds CPU = 0.001 seconds
  read_data CPU = 0.017 seconds

# --- Определение параметров для CO2 ---
# Массы для новых типов атомов (6: C_CO2, 7: O_CO2)
mass            6 12.011   # C in CO2
mass            7 15.9994  # O in CO2

# Pair Coeffs для CO2 (MOF-5 pair_coeffs читаются из data-файла)
# pair_coeff I J epsilon sigma
pair_coeff      6 6 0.0514 2.85    # C_CO2 - C_CO2
pair_coeff      7 7 0.1600 3.02    # O_CO2 - O_CO2

# Правила смешивания для межмолекулярных взаимодействий (например, MOF-CO2)
# Lorentz-Berthelot по умолчанию для lj/cut/coul/long
pair_modify     mix arithmetic

# Bond Coeffs для CO2 (тип связи 7)
# bond_coeff Type K r0
bond_coeff      7 1000.0 1.16   # C=O

# Angle Coeffs для CO2 (тип угла 10)
# angle_coeff Type K theta0 (для стиля harmonic)
angle_coeff     10 harmonic 100.0 180.0 # O=C=O

# --- Настройки дальнодействующих взаимодействий ---
kspace_style    pppm 1.0e-5

# --- Определение молекулы CO2 ---
molecule        co2mol CO2.txt
Read molecule template co2mol:
# CO2 molecule template for LAMMPS
  1 molecules
  0 fragments
  3 atoms with max type 7
  2 bonds with max type 7
  1 angles with max type 10
  0 dihedrals with max type 0
  0 impropers with max type 0

# --- Настройки GCMC ---
variable        T equal 273.0       # Температура в Кельвинах
variable        P equal 0.1         # Давление в атмосферах
variable        fug_coeff equal 1.0 # Коэффициент фугитивности (для идеального газа = 1.0)
variable        seed equal 12345    # Начальное число для генератора случайных чисел

# Группа для атомов CO2 (типы 6 и 7)
group           co2_atoms type 6 7
0 atoms in group co2_atoms


# Variables for analysis
variable N_co2  equal count(co2_atoms)/3
variable ads_density equal v_N_co2/vol

dump            dall all atom 100 dumps_T273K/dump_npt_${press}.lammpstrj
dump            dall all atom 100 dumps_T273K/dump_npt_0.1.lammpstrj

fix             mynpt all nvt temp 273.0 273.0 100.0

# Thermo output
thermo          100
thermo_style    custom step temp press vol density etotal
run             10000
PPPM initialization ...
WARNING: System is not charge neutral, net charge = 0.0008 (../kspace.cpp:327)
  using 12-bit tables for long-range coulomb (../kspace.cpp:342)
  G vector (1/distance) = 0.2438405
  grid = 16 16 16
  stencil order = 5
  estimated absolute RMS force accuracy = 0.002249822
  estimated relative force accuracy = 6.7752721e-06
  using double precision KISS FFT
  3d grid and FFT values/proc = 2250 256
Generated 21 of 21 mixed pair_coeff terms from arithmetic mixing rule
Neighbor list info ...
  update: every = 1 steps, delay = 0 steps, check = yes
  max neighbors/atom: 2000, page size: 100000
  master list distance cutoff = 14
  ghost atom cutoff = 14
  binsize = 7, bins = 4 4 4
  1 neighbor lists, perpetual/occasional/extra = 1 0 0
  (1) pair lj/cut/coul/long, perpetual
      attributes: half, newton on
      pair build: half/bin/newton/tri
      stencil: half/bin/3d/tri
      bin: standard
WARNING: Inconsistent image flags (../domain.cpp:1051)
Per MPI rank memory allocation (min/avg/max) = 13.24 | 13.45 | 13.94 Mbytes
   Step          Temp          Press          Volume        Density         TotEng    
         0   0             -31876.762      17636.431      0.57988585    -12893.244    
       100   210.16881     -30003.578      17636.431      0.57988585    -12871.589    
       200   260.74065     -36201.825      17636.431      0.57988585    -12854.357    
       300   229.25142     -30914.163      17636.431      0.57988585    -12843.399    
       400   331.52753     -39917.98       17636.431      0.57988585    -12829.576    
       500   352.90731     -35209.741      17636.431      0.57988585    -12835.495    
       600   368.86251     -31380.898      17636.431      0.57988585    -12825.379    
       700   296.7017      -25882.273      17636.431      0.57988585    -12840.3      
       800   382.41101     -28741.108      17636.431      0.57988585    -12844.203    
       900   332.04313     -31911.637      17636.431      0.57988585    -12835.609    
      1000   235.91716     -30239.955      17636.431      0.57988585    -12843.723    
      1100   285.28717     -33715.639      17636.431      0.57988585    -12833.271    
      1200   154.00462     -29548.696      17636.431      0.57988585    -12838.076    
      1300   239.05577     -32819.673      17636.431      0.57988585    -12839.068    
      1400   176.49302     -27790.715      17636.431      0.57988585    -12832.044    
      1500   241.49118     -30624.269      17636.431      0.57988585    -12841.411    
      1600   308.71125     -23180.139      17636.431      0.57988585    -12828.818    
      1700   306.72994     -35729.276      17636.431      0.57988585    -12840.011    
      1800   336.64499     -34452.961      17636.431      0.57988585    -12831.83     
      1900   327.48794     -35838.903      17636.431      0.57988585    -12836.817    
      2000   304.00828     -30724.962      17636.431      0.57988585    -12835.599    
      2100   304.96482     -34315.949      17636.431      0.57988585    -12836.56     
      2200   279.60707     -31039.769      17636.431      0.57988585    -12840.353    
      2300   292.08204     -31383.889      17636.431      0.57988585    -12826.543    
      2400   212.37899     -32972.582      17636.431      0.57988585    -12793.288    
      2500   271.94548     -33021.82       17636.431      0.57988585    -12801.195    
      2600   256.70199     -37512.381      17636.431      0.57988585    -12812.222    
      2700   219.78156     -34152.398      17636.431      0.57988585    -12845.519    
      2800   271.82123     -34257.578      17636.431      0.57988585    -12837.753    
      2900   314.87059     -28039.011      17636.431      0.57988585    -12847.457    
      3000   229.24186     -35369.161      17636.431      0.57988585    -12833.498    
      3100   308.65928     -27087.921      17636.431      0.57988585    -12820.524    
      3200   242.81888     -33371.086      17636.431      0.57988585    -12804.116    
      3300   307.01425     -31719.295      17636.431      0.57988585    -12807.438    
      3400   187.36661     -38476.963      17636.431      0.57988585    -12838.658    
      3500   225.23856     -32464.083      17636.431      0.57988585    -12844.601    
      3600   272.18294     -33746.793      17636.431      0.57988585    -12847.879    
      3700   239.74795     -28567.738      17636.431      0.57988585    -12834.594    
      3800   311.25952     -34843.056      17636.431      0.57988585    -12826.288    
      3900   269.67279     -34651.462      17636.431      0.57988585    -12833.336    
      4000   267.09766     -30789.996      17636.431      0.57988585    -12864.782    
      4100   271.28517     -32480.455      17636.431      0.57988585    -12872.223    
      4200   214.9928      -35968.207      17636.431      0.57988585    -12850.604    
      4300   312.29626     -34852.551      17636.431      0.57988585    -12823.207    
      4400   253.1109      -28323.86       17636.431      0.57988585    -12827.198    
      4500   239.15411     -32420.269      17636.431      0.57988585    -12831.75     
      4600   236.37088     -31567.934      17636.431      0.57988585    -12858.524    
      4700   239.43537     -37067.192      17636.431      0.57988585    -12861.818    
      4800   280.44861     -31933.548      17636.431      0.57988585    -12851.039    
      4900   262.89251     -35375.558      17636.431      0.57988585    -12850.657    
      5000   302.05799     -28526.681      17636.431      0.57988585    -12831.009    
      5100   276.62986     -34434.285      17636.431      0.57988585    -12827.804    
      5200   283.0855      -31350.397      17636.431      0.57988585    -12822.596    
      5300   317.67001     -32278.411      17636.431      0.57988585    -12843.527    
      5400   231.79196     -30558.947      17636.431      0.57988585    -12868.462    
      5500   309.04893     -35997.224      17636.431      0.57988585    -12855.521    
      5600   259.51403     -35917.317      17636.431      0.57988585    -12837.564    
      5700   318.37284     -33781.219      17636.431      0.57988585    -12830.565    
      5800   277.2725      -32445.945      17636.431      0.57988585    -12830.672    
      5900   295.63269     -30087.561      17636.431      0.57988585    -12845.642    
      6000   240.66865     -34321.266      17636.431      0.57988585    -12848.665    
      6100   242.69685     -31580.803      17636.431      0.57988585    -12859.98     
      6200   229.0487      -36467.439      17636.431      0.57988585    -12872.082    
      6300   260.21848     -31708.061      17636.431      0.57988585    -12858.392    
      6400   209.82257     -34715.064      17636.431      0.57988585    -12835.131    
      6500   283.96414     -29286.01       17636.431      0.57988585    -12823.338    
      6600   254.22148     -34305.939      17636.431      0.57988585    -12828.761    
      6700   240.95514     -30105.817      17636.431      0.57988585    -12841.98     
      6800   323.73014     -32889.298      17636.431      0.57988585    -12843.427    
      6900   254.61793     -31580.805      17636.431      0.57988585    -12850.353    
      7000   297.52631     -35711.275      17636.431      0.57988585    -12844.921    
      7100   294.46336     -32955.929      17636.431      0.57988585    -12843.969    
      7200   274.5909      -35437.046      17636.431      0.57988585    -12829.786    
      7300   281.97997     -32198.342      17636.431      0.57988585    -12823.485    
      7400   263.04529     -30434.142      17636.431      0.57988585    -12832.907    
      7500   267.61155     -31430.532      17636.431      0.57988585    -12860.244    
      7600   221.70506     -34454.309      17636.431      0.57988585    -12874.51     
      7700   298.78708     -34288.531      17636.431      0.57988585    -12863.382    
      7800   235.00712     -30765.582      17636.431      0.57988585    -12849.609    
      7900   266.23456     -35067.147      17636.431      0.57988585    -12841.009    
      8000   299.08841     -29676.054      17636.431      0.57988585    -12829.214    
      8100   280.73886     -32156.389      17636.431      0.57988585    -12825.873    
      8200   259.95766     -28432.691      17636.431      0.57988585    -12834.308    
      8300   291.24526     -34609.409      17636.431      0.57988585    -12852.621    
      8400   251.30721     -30571.046      17636.431      0.57988585    -12862.151    
      8500   249.81856     -36106.802      17636.431      0.57988585    -12845.817    
      8600   273.9227      -34228.091      17636.431      0.57988585    -12813.154    
      8700   295.07888     -35397.336      17636.431      0.57988585    -12812.252    
      8800   322.86606     -29766.076      17636.431      0.57988585    -12827.872    
      8900   298.05424     -33125.645      17636.431      0.57988585    -12849.079    
      9000   321.13971     -29603.213      17636.431      0.57988585    -12850.601    
      9100   235.81512     -33192.528      17636.431      0.57988585    -12843.71     
      9200   319.43396     -34580.546      17636.431      0.57988585    -12809.683    
      9300   334.07268     -34074.485      17636.431      0.57988585    -12781.634    
      9400   276.81797     -31114.915      17636.431      0.57988585    -12804.675    
      9500   312.41261     -32256.478      17636.431      0.57988585    -12820.455    
      9600   242.45885     -33222.201      17636.431      0.57988585    -12839.807    
      9700   276.69172     -29795.803      17636.431      0.57988585    -12853.921    
      9800   249.47156     -31522.048      17636.431      0.57988585    -12853.233    
      9900   233.84253     -32002.505      17636.431      0.57988585    -12834.139    
     10000   245.99777     -36504.963      17636.431      0.57988585    -12807.449    
Loop time of 2.3201 on 20 procs for 10000 steps with 424 atoms

Performance: 372.397 ns/day, 0.064 hours/ns, 4310.152 timesteps/s, 1.828 Matom-step/s
99.9% CPU use with 20 MPI tasks x no OpenMP threads

MPI task timing breakdown:
Section |  min time  |  avg time  |  max time  |%varavg| %total
---------------------------------------------------------------
Pair    | 0.019397   | 0.20424    | 0.48367    |  36.4 |  8.80
Bond    | 0.0057555  | 0.038156   | 0.087599   |  13.7 |  1.64
Kspace  | 1.1177     | 1.4293     | 1.6528     |  14.2 | 61.61
Neigh   | 0.0091112  | 0.0094982  | 0.0098398  |   0.3 |  0.41
Comm    | 0.49036    | 0.5524     | 0.60935    |   4.1 | 23.81
Output  | 0.0048366  | 0.007223   | 0.0096287  |   1.7 |  0.31
Modify  | 0.018146   | 0.032814   | 0.051587   |   5.5 |  1.41
Other   |            | 0.04642    |            |       |  2.00

Nlocal:           21.2 ave          41 max           1 min
Histogram: 4 3 1 0 1 2 1 0 3 5
Nghost:           1633 ave        1766 max        1457 min
Histogram: 8 0 0 0 0 0 0 0 5 7
Neighs:         2667.3 ave        5201 max         134 min
Histogram: 6 2 0 0 1 3 0 0 3 5

Total # of neighbors = 53346
Ave neighs/atom = 125.81604
Ave special neighs/atom = 12.943396
Neighbor list builds = 27
Dangerous builds = 0
unfix           mynpt


# Fix GCMC
# N: выполнять GCMC каждые N шагов
# Nexchange: количество попыток обмена (вставка/удаление)
# Ntranslate_rotate_mol: количество попыток трансляции/вращения молекулы
# Nrigidbody_... : 0, так как CO2 у нас гибкий
# mol co2mol: используемый шаблон молекулы
# full_energy: пересчитывать полную энергию системы (рекомендуется)
# pressure ${P}: давление (LAMMPS вычислит химический потенциал)
# displace: максимальное смещение для трансляции молекулы (в Ангстремах)
#fix             gcmc_run all gcmc 100 100 100 0 ${seed} ${T} ${P} ${fug_coeff} mol co2mol full_energy displace 0.5
fix             GCMC co2_atoms gcmc 100 1000 0 0 12345 273.0 -5.0 0.5 mol co2mol pressure ${press} full_energy group co2_atoms
fix             GCMC co2_atoms gcmc 100 1000 0 0 12345 273.0 -5.0 0.5 mol co2mol pressure 0.1 full_energy group co2_atoms

# --- Настройки вывода ---
#thermo_style    custom step temp press pe etotal natoms ncmc_insert ncmc_delete ncmc_trans ncmc_rotate ncmc_attempt ncmc_accept atoms_in_gcmc_mol


thermo          1000
thermo_style    custom step temp press v_N_co2 v_ads_density pe ke etotal
dump            gcmc_dump all atom 500 dumps_T273K/dump.gcmc_mof5_co2_${press}.lammpstrj
dump            gcmc_dump all atom 500 dumps_T273K/dump.gcmc_mof5_co2_0.1.lammpstrj

# --- Запуск симуляции ---
# Для GCMC обычно не нужен MD integrator для всей системы, если только не изучается динамика каркаса.
# Если каркас должен быть подвижен, добавьте fix nvt для атомов MOF-5.
# Например, если атомы MOF-5 должны оставаться фиксированными:
# group mof_atoms type <= 5
# fix freeze_mof mof_atoms setforce 0.0 0.0 0.0
# Однако, для GCMC лучше, чтобы каркас был термостатирован, если он не абсолютно жесткий.
# Если вы хотите просто провести GCMC без MD шагов для каркаса:
# run 0 post no # Это позволит fix gcmc работать без MD шагов
# Но обычно GCMC совмещают с MD:
timestep        1.0 # фемтосекунды (если есть MD)
run             100000 # Количество шагов GCMC/MD
WARNING: No fixes with time integration, atoms won't move (../verlet.cpp:60)
PPPM initialization ...
  using 12-bit tables for long-range coulomb (../kspace.cpp:342)
  G vector (1/distance) = 0.2438405
  grid = 16 16 16
  stencil order = 5
  estimated absolute RMS force accuracy = 0.002249822
  estimated relative force accuracy = 6.7752721e-06
  using double precision KISS FFT
  3d grid and FFT values/proc = 2250 256
Generated 21 of 21 mixed pair_coeff terms from arithmetic mixing rule
0 atoms in group FixGCMC:gcmc_exclusion_group:GCMC
0 atoms in group FixGCMC:rotation_gas_atoms:GCMC
WARNING: Neighbor exclusions used with KSpace solver may give inconsistent Coulombic energies (../neighbor.cpp:666)
WARNING: Inconsistent image flags (../domain.cpp:1051)
Per MPI rank memory allocation (min/avg/max) = 14.24 | 14.47 | 14.93 Mbytes
   Step          Temp          Press         v_N_co2     v_ads_density      PotEng         KinEng         TotEng    
     10000   245.99777     -36504.963      0              0             -13117.624      310.17432     -12807.449    
     11000   281.7257      -36101.337      54             0.003061844   -13496.978      355.22305     -13141.755    
     12000   283.4393      -36555.26       58             0.0032886472  -13536.775      357.3837      -13179.392    
     13000   292.19133     -36347.557      67             0.0037989545  -13608.121      368.41898     -13239.702    
     14000   297.26217     -36299.777      75             0.004252561   -13689.35       374.81271     -13314.537    
     15000   307.07195     -35846.664      88             0.0049896716  -13775.813      387.1817      -13388.631    
     16000   297.42279     -35683.144      87             0.0049329708  -13775.395      375.01523     -13400.38     
     17000   300.16277     -35722.594      92             0.0052164749  -13811.046      378.47002     -13432.576    
     18000   306.47254     -35820.644      101            0.0057267822  -13876.377      386.42591     -13489.951    
     19000   303.24946     -35826.516      94             0.0053298765  -13838.643      382.36198     -13456.281    
     20000   299.38803     -35615.672      86             0.00487627    -13785.893      377.49318     -13408.399    
     21000   297.07621     -35678.185      85             0.0048195692  -13789.822      374.57824     -13415.244    
     22000   305.91773     -35659.305      98             0.0055566798  -13876.206      385.72636     -13490.48     
     23000   303.97508     -35592.285      96             0.0054432781  -13871.948      383.27691     -13488.671    
     24000   312.69082     -35531.751      105            0.0059535855  -13932.493      394.26643     -13538.226    
     25000   304.81088     -35545.823      97             0.005499979   -13878.806      384.33076     -13494.475    
     26000   308.85401     -35349.491      100            0.0056700814  -13897.349      389.42866     -13507.92     
     27000   302.11326     -35483.339      98             0.0055566798  -13894.375      380.92937     -13513.445    
     28000   302.57474     -35330.489      96             0.0054432781  -13882          381.51123     -13500.489    
     29000   298.32729     -35445.226      94             0.0053298765  -13874.348      376.15571     -13498.192    
     30000   309.04185     -35578.931      108            0.0061236879  -13968.025      389.6655      -13578.359    
     31000   313.36678     -35547.254      107            0.0060669871  -13974.98       395.11874     -13579.861    
     32000   305.37058     -35501.308      100            0.0056700814  -13930.171      385.03647     -13545.135    
     33000   306.00864     -35614.204      103            0.0058401838  -13957.637      385.84099     -13571.796    
     34000   307.96139     -35527.927      106            0.0060102863  -13971.93       388.30318     -13583.627    
     35000   308.99136     -35575.031      106            0.0060102863  -13976.149      389.60184     -13586.547    
     36000   313.42188     -35536.926      111            0.0062937903  -14004.25       395.18821     -13609.061    
     37000   314.22073     -35558.525      107            0.0060669871  -13985.342      396.19547     -13589.146    
     38000   314.15237     -35411.056      107            0.0060669871  -13985.905      396.10927     -13589.796    
     39000   313.19043     -35383.492      106            0.0060102863  -13977.971      394.89638     -13583.074    
     40000   309.13941     -35339.986      102            0.005783483   -13955.443      389.78852     -13565.654    
     41000   306.81095     -35439.49       104            0.0058968847  -13962.145      386.8526      -13575.292    
     42000   307.07878     -35439.395      98             0.0055566798  -13934.296      387.19031     -13547.105    
     43000   311.63826     -35480.404      102            0.005783483   -13953.273      392.93928     -13560.334    
     44000   321.03978     -35329.09       107            0.0060669871  -13991.761      404.79349     -13586.968    
     45000   320.07653     -35194.226      103            0.0058401838  -13975.471      403.57894     -13571.892    
     46000   320.14431     -35409.14       104            0.0058968847  -13975.428      403.66441     -13571.763    
     47000   316.90141     -35393.774      98             0.0055566798  -13938.933      399.57549     -13539.357    
     48000   324.94412     -35446.773      105            0.0059535855  -13984.335      409.71641     -13574.619    
     49000   325.58003     -35444.551      107            0.0060669871  -13996.511      410.51822     -13585.993    
     50000   323.43589     -35445.322      103            0.0058401838  -13966.657      407.81471     -13558.842    
     51000   322.73062     -35382.459      106            0.0060102863  -13994.454      406.92544     -13587.528    
     52000   321.18144     -35277.867      103            0.0058401838  -13979.809      404.97211     -13574.836    
     53000   323.5263      -35222.275      105            0.0059535855  -13981.131      407.9287      -13573.203    
     54000   317.63481     -35363.632      105            0.0059535855  -13992.18       400.50022     -13591.68     
     55000   319.66922     -35507.619      106            0.0060102863  -13990.37       403.06537     -13587.305    
     56000   315.72052     -35181.209      104            0.0058968847  -13990.518      398.08653     -13592.431    
     57000   314.23615     -35413.755      102            0.005783483   -13968.514      396.21491     -13572.299    
     58000   309.56442     -35313.263      102            0.005783483   -13969.682      390.32441     -13579.358    
     59000   317.73903     -35273.581      111            0.0062937903  -14024.46       400.63163     -13623.828    
     60000   308.91845     -35245.17       99             0.0056133806  -13962.989      389.50992     -13573.479    
     61000   312.4082      -35302.757      107            0.0060669871  -14005.918      393.91008     -13612.007    
     62000   315.95432     -35329.099      107            0.0060669871  -14013.096      398.38132     -13614.714    
     63000   308.34759     -35217.609      104            0.0058968847  -13999.644      388.79012     -13610.854    
     64000   306.53505     -35187.406      103            0.0058401838  -13997.092      386.50472     -13610.587    
     65000   308.53873     -35308.814      105            0.0059535855  -14000.927      389.03113     -13611.896    
     66000   311.20817     -35095.283      106            0.0060102863  -14010.181      392.39699     -13617.784    
     67000   308.91649     -35255.158      105            0.0059535855  -13999.191      389.50744     -13609.684    
     68000   312.14467     -35333.676      106            0.0060102863  -14016.587      393.57779     -13623.009    
     69000   311.53262     -35476.764      107            0.0060669871  -14016.596      392.80607     -13623.79     
     70000   314.63973     -35460.099      105            0.0059535855  -14008.657      396.72378     -13611.934    
     71000   313.36099     -35369.197      108            0.0061236879  -14023.141      395.11144     -13628.03     
     72000   316.31281     -35391.28       108            0.0061236879  -14020.137      398.83333     -13621.304    
     73000   304.71349     -35408.398      103            0.0058401838  -13990.224      384.20795     -13606.016    
     74000   306.38344     -35434.588      104            0.0058968847  -13996.527      386.31357     -13610.213    
     75000   306.06551     -35490.14       106            0.0060102863  -14010.763      385.91269     -13624.851    
     76000   309.34183     -35525.319      109            0.0061803887  -14041.997      390.04375     -13651.953    
     77000   309.25193     -35541.637      110            0.0062370895  -14045.461      389.93039     -13655.531    
     78000   309.90072     -35446.436      109            0.0061803887  -14050.494      390.74844     -13659.746    
     79000   313.6896      -35451.401      111            0.0062937903  -14059.525      395.52578     -13663.999    
     80000   311.31987     -35403.416      114            0.0064638928  -14079.785      392.53782     -13687.247    
     81000   307.41366     -35359.254      111            0.0062937903  -14066.291      387.61255     -13678.679    
     82000   315.5061      -35651.755      118            0.006690696   -14104.709      397.81617     -13706.893    
     83000   314.9156      -35574.387      112            0.0063504912  -14079.993      397.07162     -13682.921    
     84000   309.80838     -35727.371      112            0.0063504912  -14075.869      390.63201     -13685.237    
     85000   313.44947     -35687.797      114            0.0064638928  -14085.989      395.223       -13690.766    
     86000   313.02903     -35464.303      112            0.0063504912  -14076.342      394.69287     -13681.649    
     87000   316.46502     -35617.548      116            0.0065772944  -14102.496      399.02525     -13703.471    
     88000   316.76882     -35587.092      121            0.0068607985  -14131.434      399.40831     -13732.025    
     89000   319.83456     -35403.205      119            0.0067473969  -14120.477      403.27385     -13717.203    
     90000   321.87908     -35485.687      122            0.0069174993  -14146.033      405.85175     -13740.181    
     91000   319.37274     -35438.682      118            0.006690696   -14120.402      402.69155     -13717.71     
     92000   315.9429      -35496.631      114            0.0064638928  -14094.657      398.36692     -13696.29     
     93000   319.50484     -35439.72       119            0.0067473969  -14120.556      402.85811     -13717.698    
     94000   317.74798     -35591.063      120            0.0068040977  -14135.009      400.64291     -13734.366    
     95000   318.56544     -35742.168      120            0.0068040977  -14128.038      401.67364     -13726.364    
     96000   320.14702     -35752.337      119            0.0067473969  -14124.822      403.66783     -13721.154    
     97000   314.77261     -35675.355      111            0.0062937903  -14069.952      396.89132     -13673.061    
     98000   313.63386     -35637.304      110            0.0062370895  -14058.015      395.45549     -13662.56     
     99000   317.60121     -35720.409      118            0.006690696   -14098.668      400.45785     -13698.21     
    100000   326.13727     -35675.667      120            0.0068040977  -14108.038      411.22082     -13696.817    
    101000   316.7899      -35547.676      114            0.0064638928  -14084.518      399.43488     -13685.083    
    102000   316.63193     -35536.177      116            0.0065772944  -14093.424      399.2357      -13694.188    
    103000   313.68138     -35483.074      109            0.0061803887  -14060.844      395.51541     -13665.329    
    104000   317.28536     -35385.548      109            0.0061803887  -14055.552      400.05961     -13655.492    
    105000   321.9443      -35248.488      114            0.0064638928  -14093.479      405.93399     -13687.545    
    106000   321.19488     -35208.183      115            0.0065205936  -14097.049      404.98905     -13692.06     
    107000   321.38612     -35222.24       116            0.0065772944  -14107.508      405.23019     -13702.278    
    108000   323.56192     -35288.974      113            0.006407192   -14087.87       407.97362     -13679.896    
    109000   319.89921     -35283.39       114            0.0064638928  -14097.032      403.35537     -13693.677    
    110000   322.56929     -35046.448      119            0.0067473969  -14127.307      406.72203     -13720.585    
Loop time of 1701.63 on 20 procs for 100000 steps with 781 atoms

Performance: 5.077 ns/day, 4.727 hours/ns, 58.767 timesteps/s, 45.897 katom-step/s
100.0% CPU use with 20 MPI tasks x no OpenMP threads

MPI task timing breakdown:
Section |  min time  |  avg time  |  max time  |%varavg| %total
---------------------------------------------------------------
Pair    | 3.7112     | 7.0587     | 12.396     |  97.2 |  0.41
Bond    | 0.051456   | 0.40857    | 0.95435    |  35.7 |  0.02
Kspace  | 13.37      | 18.833     | 22.125     |  60.8 |  1.11
Neigh   | 1.064      | 1.0811     | 1.0934     |   0.8 |  0.06
Comm    | 6.7751     | 7.3214     | 7.8866     |   9.3 |  0.43
Output  | 0.085092   | 0.13798    | 0.17471    |   6.7 |  0.01
Modify  | 1666.1     | 1666.1     | 1666.2     |   0.1 | 97.91
Other   |            | 0.6507     |            |       |  0.04

Nlocal:          39.05 ave          55 max          16 min
Histogram: 1 0 3 1 1 4 3 1 3 3
Nghost:         2667.7 ave        2840 max        2473 min
Histogram: 3 3 2 0 0 0 3 3 4 2
Neighs:        9687.55 ave       13751 max        4006 min
Histogram: 1 0 3 1 1 3 4 2 3 2

Total # of neighbors = 193751
Ave neighs/atom = 248.08067
Ave special neighs/atom = 7.9411012
Neighbor list builds = 1001992
Dangerous builds = 0

# --- Завершение ---
print "GCMC simulation finished." 
GCMC simulation finished.
Total wall time: 0:28:23
