LAMMPS (29 Aug 2024 - Update 2)
# LAMMPS input script for GCMC simulation of CO2 in MOF-5

variable press equal ${p}
variable press equal 5.0

# --- Инициализация ---
units           real
atom_style      full
boundary        p p p

# --- Определение стилей потенциалов ---
# Важно: эти стили должны соответствовать формату коэффициентов в data.MOF5_charged_simple
# и добавленным коэффициентам для CO2.
pair_style      lj/cut/coul/long 12.0 # Катофф 12 Ангстрем для LJ и кулона
bond_style      harmonic
angle_style     hybrid fourier cosine/periodic harmonic # MOF-5 использует fourier и cosine/periodic, CO2 - harmonic
dihedral_style  harmonic # Предполагаем, что диэдрали в MOF-5 совместимы с harmonic (K d n)
improper_style  fourier # Предполагаем, что несобственные углы в MOF-5 совместимы с umbrella (K chi0)

# --- Чтение данных MOF-5 ---
# Добавляем 2 новых типа атомов (для C и O в CO2), 1 новый тип связи (C=O), 1 новый тип угла (O=C=O)
read_data       data.MOF5_charged_simple extra/atom/types 2 extra/bond/types 1 extra/angle/types 1
Reading data file ...
  triclinic box = (0 0 0) to (26.029363 26.031584 26.028346) with tilt (0.003152 -0.002169 0.002663)
  2 by 5 by 2 MPI processor grid
  reading atoms ...
  424 atoms
  scanning bonds ...
  4 = max bonds/atom
  scanning angles ...
  6 = max angles/atom
  scanning dihedrals ...
  8 = max dihedrals/atom
  scanning impropers ...
  3 = max impropers/atom
  triclinic box = (0 0 0) to (26.029363 26.031584 26.028346) with tilt (0.003152 -0.002169 0.002663)
  2 by 5 by 2 MPI processor grid
  reading bonds ...
  512 bonds
  reading angles ...
  912 angles
  reading dihedrals ...
  960 dihedrals
  reading impropers ...
  576 impropers
Finding 1-2 1-3 1-4 neighbors ...
  special bond factors lj:    0        0        0       
  special bond factors coul:  0        0        0       
     4 = max # of 1-2 neighbors
    12 = max # of 1-3 neighbors
    24 = max # of 1-4 neighbors
    22 = max # of special neighbors
  special bonds CPU = 0.002 seconds
  read_data CPU = 0.018 seconds

# --- Определение параметров для CO2 ---
# Массы для новых типов атомов (6: C_CO2, 7: O_CO2)
mass            6 12.011   # C in CO2
mass            7 15.9994  # O in CO2

# Pair Coeffs для CO2 (MOF-5 pair_coeffs читаются из data-файла)
# pair_coeff I J epsilon sigma
pair_coeff      6 6 0.0514 2.85    # C_CO2 - C_CO2
pair_coeff      7 7 0.1600 3.02    # O_CO2 - O_CO2

# Правила смешивания для межмолекулярных взаимодействий (например, MOF-CO2)
# Lorentz-Berthelot по умолчанию для lj/cut/coul/long
pair_modify     mix arithmetic

# Bond Coeffs для CO2 (тип связи 7)
# bond_coeff Type K r0
bond_coeff      7 1000.0 1.16   # C=O

# Angle Coeffs для CO2 (тип угла 10)
# angle_coeff Type K theta0 (для стиля harmonic)
angle_coeff     10 harmonic 100.0 180.0 # O=C=O

# --- Настройки дальнодействующих взаимодействий ---
kspace_style    pppm 1.0e-5

# --- Определение молекулы CO2 ---
molecule        co2mol CO2.txt
Read molecule template co2mol:
# CO2 molecule template for LAMMPS
  1 molecules
  0 fragments
  3 atoms with max type 7
  2 bonds with max type 7
  1 angles with max type 10
  0 dihedrals with max type 0
  0 impropers with max type 0

# --- Настройки GCMC ---
variable        T equal 273.0       # Температура в Кельвинах
variable        P equal 0.1         # Давление в атмосферах
variable        fug_coeff equal 1.0 # Коэффициент фугитивности (для идеального газа = 1.0)
variable        seed equal 12345    # Начальное число для генератора случайных чисел

# Группа для атомов CO2 (типы 6 и 7)
group           co2_atoms type 6 7
0 atoms in group co2_atoms


# Variables for analysis
variable N_co2  equal count(co2_atoms)/3
variable ads_density equal v_N_co2/vol

dump            dall all atom 100 dumps_T273K/dump_npt_${press}.lammpstrj
dump            dall all atom 100 dumps_T273K/dump_npt_5.lammpstrj

fix             mynpt all nvt temp 273.0 273.0 100.0

# Thermo output
thermo          100
thermo_style    custom step temp press vol density etotal
run             10000
PPPM initialization ...
WARNING: System is not charge neutral, net charge = 0.0008 (../kspace.cpp:327)
  using 12-bit tables for long-range coulomb (../kspace.cpp:342)
  G vector (1/distance) = 0.2438405
  grid = 16 16 16
  stencil order = 5
  estimated absolute RMS force accuracy = 0.002249822
  estimated relative force accuracy = 6.7752721e-06
  using double precision KISS FFT
  3d grid and FFT values/proc = 2250 256
Generated 21 of 21 mixed pair_coeff terms from arithmetic mixing rule
Neighbor list info ...
  update: every = 1 steps, delay = 0 steps, check = yes
  max neighbors/atom: 2000, page size: 100000
  master list distance cutoff = 14
  ghost atom cutoff = 14
  binsize = 7, bins = 4 4 4
  1 neighbor lists, perpetual/occasional/extra = 1 0 0
  (1) pair lj/cut/coul/long, perpetual
      attributes: half, newton on
      pair build: half/bin/newton/tri
      stencil: half/bin/3d/tri
      bin: standard
WARNING: Inconsistent image flags (../domain.cpp:1051)
Per MPI rank memory allocation (min/avg/max) = 13.24 | 13.45 | 13.94 Mbytes
   Step          Temp          Press          Volume        Density         TotEng    
         0   0             -31876.762      17636.431      0.57988585    -12893.244    
       100   210.16881     -30003.578      17636.431      0.57988585    -12871.589    
       200   260.74065     -36201.825      17636.431      0.57988585    -12854.357    
       300   229.25142     -30914.163      17636.431      0.57988585    -12843.399    
       400   331.52753     -39917.98       17636.431      0.57988585    -12829.576    
       500   352.90731     -35209.741      17636.431      0.57988585    -12835.495    
       600   368.86251     -31380.898      17636.431      0.57988585    -12825.379    
       700   296.7017      -25882.273      17636.431      0.57988585    -12840.3      
       800   382.41101     -28741.108      17636.431      0.57988585    -12844.203    
       900   332.04313     -31911.637      17636.431      0.57988585    -12835.609    
      1000   235.91716     -30239.955      17636.431      0.57988585    -12843.723    
      1100   285.28717     -33715.639      17636.431      0.57988585    -12833.271    
      1200   154.00462     -29548.696      17636.431      0.57988585    -12838.076    
      1300   239.05577     -32819.673      17636.431      0.57988585    -12839.068    
      1400   176.49302     -27790.715      17636.431      0.57988585    -12832.044    
      1500   241.49118     -30624.269      17636.431      0.57988585    -12841.411    
      1600   308.71125     -23180.139      17636.431      0.57988585    -12828.818    
      1700   306.72994     -35729.276      17636.431      0.57988585    -12840.011    
      1800   336.64499     -34452.961      17636.431      0.57988585    -12831.83     
      1900   327.48794     -35838.903      17636.431      0.57988585    -12836.817    
      2000   304.00828     -30724.962      17636.431      0.57988585    -12835.599    
      2100   304.96482     -34315.949      17636.431      0.57988585    -12836.56     
      2200   279.60707     -31039.769      17636.431      0.57988585    -12840.353    
      2300   292.08204     -31383.889      17636.431      0.57988585    -12826.543    
      2400   212.37899     -32972.582      17636.431      0.57988585    -12793.288    
      2500   271.94548     -33021.82       17636.431      0.57988585    -12801.195    
      2600   256.70199     -37512.381      17636.431      0.57988585    -12812.222    
      2700   219.78156     -34152.398      17636.431      0.57988585    -12845.519    
      2800   271.82123     -34257.578      17636.431      0.57988585    -12837.753    
      2900   314.87059     -28039.011      17636.431      0.57988585    -12847.457    
      3000   229.24186     -35369.161      17636.431      0.57988585    -12833.498    
      3100   308.65928     -27087.921      17636.431      0.57988585    -12820.524    
      3200   242.81888     -33371.086      17636.431      0.57988585    -12804.116    
      3300   307.01425     -31719.295      17636.431      0.57988585    -12807.438    
      3400   187.36661     -38476.963      17636.431      0.57988585    -12838.658    
      3500   225.23856     -32464.083      17636.431      0.57988585    -12844.601    
      3600   272.18294     -33746.793      17636.431      0.57988585    -12847.879    
      3700   239.74795     -28567.738      17636.431      0.57988585    -12834.594    
      3800   311.25952     -34843.056      17636.431      0.57988585    -12826.288    
      3900   269.67279     -34651.462      17636.431      0.57988585    -12833.336    
      4000   267.09766     -30789.996      17636.431      0.57988585    -12864.782    
      4100   271.28517     -32480.455      17636.431      0.57988585    -12872.223    
      4200   214.9928      -35968.207      17636.431      0.57988585    -12850.604    
      4300   312.29626     -34852.551      17636.431      0.57988585    -12823.207    
      4400   253.1109      -28323.86       17636.431      0.57988585    -12827.198    
      4500   239.15411     -32420.269      17636.431      0.57988585    -12831.75     
      4600   236.37088     -31567.934      17636.431      0.57988585    -12858.524    
      4700   239.43537     -37067.192      17636.431      0.57988585    -12861.818    
      4800   280.44861     -31933.548      17636.431      0.57988585    -12851.039    
      4900   262.89251     -35375.558      17636.431      0.57988585    -12850.657    
      5000   302.05799     -28526.681      17636.431      0.57988585    -12831.009    
      5100   276.62986     -34434.285      17636.431      0.57988585    -12827.804    
      5200   283.0855      -31350.397      17636.431      0.57988585    -12822.596    
      5300   317.67001     -32278.411      17636.431      0.57988585    -12843.527    
      5400   231.79196     -30558.947      17636.431      0.57988585    -12868.462    
      5500   309.04893     -35997.224      17636.431      0.57988585    -12855.521    
      5600   259.51403     -35917.317      17636.431      0.57988585    -12837.564    
      5700   318.37284     -33781.219      17636.431      0.57988585    -12830.565    
      5800   277.2725      -32445.945      17636.431      0.57988585    -12830.672    
      5900   295.63269     -30087.561      17636.431      0.57988585    -12845.642    
      6000   240.66865     -34321.266      17636.431      0.57988585    -12848.665    
      6100   242.69685     -31580.803      17636.431      0.57988585    -12859.98     
      6200   229.0487      -36467.439      17636.431      0.57988585    -12872.082    
      6300   260.21848     -31708.061      17636.431      0.57988585    -12858.392    
      6400   209.82257     -34715.064      17636.431      0.57988585    -12835.131    
      6500   283.96414     -29286.01       17636.431      0.57988585    -12823.338    
      6600   254.22148     -34305.939      17636.431      0.57988585    -12828.761    
      6700   240.95514     -30105.817      17636.431      0.57988585    -12841.98     
      6800   323.73014     -32889.298      17636.431      0.57988585    -12843.427    
      6900   254.61793     -31580.805      17636.431      0.57988585    -12850.353    
      7000   297.52631     -35711.275      17636.431      0.57988585    -12844.921    
      7100   294.46336     -32955.929      17636.431      0.57988585    -12843.969    
      7200   274.5909      -35437.046      17636.431      0.57988585    -12829.786    
      7300   281.97997     -32198.342      17636.431      0.57988585    -12823.485    
      7400   263.04529     -30434.142      17636.431      0.57988585    -12832.907    
      7500   267.61155     -31430.532      17636.431      0.57988585    -12860.244    
      7600   221.70506     -34454.309      17636.431      0.57988585    -12874.51     
      7700   298.78708     -34288.531      17636.431      0.57988585    -12863.382    
      7800   235.00712     -30765.582      17636.431      0.57988585    -12849.609    
      7900   266.23456     -35067.147      17636.431      0.57988585    -12841.009    
      8000   299.08841     -29676.054      17636.431      0.57988585    -12829.214    
      8100   280.73886     -32156.389      17636.431      0.57988585    -12825.873    
      8200   259.95766     -28432.691      17636.431      0.57988585    -12834.308    
      8300   291.24526     -34609.409      17636.431      0.57988585    -12852.621    
      8400   251.30721     -30571.046      17636.431      0.57988585    -12862.151    
      8500   249.81856     -36106.802      17636.431      0.57988585    -12845.817    
      8600   273.9227      -34228.091      17636.431      0.57988585    -12813.154    
      8700   295.07888     -35397.336      17636.431      0.57988585    -12812.252    
      8800   322.86606     -29766.076      17636.431      0.57988585    -12827.872    
      8900   298.05424     -33125.645      17636.431      0.57988585    -12849.079    
      9000   321.13971     -29603.213      17636.431      0.57988585    -12850.601    
      9100   235.81512     -33192.528      17636.431      0.57988585    -12843.71     
      9200   319.43396     -34580.546      17636.431      0.57988585    -12809.683    
      9300   334.07268     -34074.485      17636.431      0.57988585    -12781.634    
      9400   276.81797     -31114.915      17636.431      0.57988585    -12804.675    
      9500   312.41261     -32256.478      17636.431      0.57988585    -12820.455    
      9600   242.45885     -33222.201      17636.431      0.57988585    -12839.807    
      9700   276.69172     -29795.803      17636.431      0.57988585    -12853.921    
      9800   249.47156     -31522.048      17636.431      0.57988585    -12853.233    
      9900   233.84253     -32002.505      17636.431      0.57988585    -12834.139    
     10000   245.99777     -36504.963      17636.431      0.57988585    -12807.449    
Loop time of 2.36431 on 20 procs for 10000 steps with 424 atoms

Performance: 365.435 ns/day, 0.066 hours/ns, 4229.573 timesteps/s, 1.793 Matom-step/s
99.9% CPU use with 20 MPI tasks x no OpenMP threads

MPI task timing breakdown:
Section |  min time  |  avg time  |  max time  |%varavg| %total
---------------------------------------------------------------
Pair    | 0.021282   | 0.20905    | 0.4681     |  34.3 |  8.84
Bond    | 0.0059991  | 0.038949   | 0.077956   |  12.6 |  1.65
Kspace  | 1.1689     | 1.4305     | 1.6405     |  13.5 | 60.51
Neigh   | 0.0093981  | 0.009677   | 0.0099925  |   0.2 |  0.41
Comm    | 0.544      | 0.57958    | 0.62101    |   2.8 | 24.51
Output  | 0.0066251  | 0.0095635  | 0.01255    |   1.9 |  0.40
Modify  | 0.024773   | 0.037374   | 0.047955   |   3.9 |  1.58
Other   |            | 0.04958    |            |       |  2.10

Nlocal:           21.2 ave          41 max           1 min
Histogram: 4 3 1 0 1 2 1 0 3 5
Nghost:           1633 ave        1766 max        1457 min
Histogram: 8 0 0 0 0 0 0 0 5 7
Neighs:         2667.3 ave        5201 max         134 min
Histogram: 6 2 0 0 1 3 0 0 3 5

Total # of neighbors = 53346
Ave neighs/atom = 125.81604
Ave special neighs/atom = 12.943396
Neighbor list builds = 27
Dangerous builds = 0
unfix           mynpt


# Fix GCMC
# N: выполнять GCMC каждые N шагов
# Nexchange: количество попыток обмена (вставка/удаление)
# Ntranslate_rotate_mol: количество попыток трансляции/вращения молекулы
# Nrigidbody_... : 0, так как CO2 у нас гибкий
# mol co2mol: используемый шаблон молекулы
# full_energy: пересчитывать полную энергию системы (рекомендуется)
# pressure ${P}: давление (LAMMPS вычислит химический потенциал)
# displace: максимальное смещение для трансляции молекулы (в Ангстремах)
#fix             gcmc_run all gcmc 100 100 100 0 ${seed} ${T} ${P} ${fug_coeff} mol co2mol full_energy displace 0.5
fix             GCMC co2_atoms gcmc 100 1000 0 0 12345 273.0 -5.0 0.5 mol co2mol pressure ${press} full_energy group co2_atoms
fix             GCMC co2_atoms gcmc 100 1000 0 0 12345 273.0 -5.0 0.5 mol co2mol pressure 5 full_energy group co2_atoms

# --- Настройки вывода ---
#thermo_style    custom step temp press pe etotal natoms ncmc_insert ncmc_delete ncmc_trans ncmc_rotate ncmc_attempt ncmc_accept atoms_in_gcmc_mol


thermo          1000
thermo_style    custom step temp press v_N_co2 v_ads_density pe ke etotal
dump            gcmc_dump all atom 500 dumps_T273K/dump.gcmc_mof5_co2_${press}.lammpstrj
dump            gcmc_dump all atom 500 dumps_T273K/dump.gcmc_mof5_co2_5.lammpstrj

# --- Запуск симуляции ---
# Для GCMC обычно не нужен MD integrator для всей системы, если только не изучается динамика каркаса.
# Если каркас должен быть подвижен, добавьте fix nvt для атомов MOF-5.
# Например, если атомы MOF-5 должны оставаться фиксированными:
# group mof_atoms type <= 5
# fix freeze_mof mof_atoms setforce 0.0 0.0 0.0
# Однако, для GCMC лучше, чтобы каркас был термостатирован, если он не абсолютно жесткий.
# Если вы хотите просто провести GCMC без MD шагов для каркаса:
# run 0 post no # Это позволит fix gcmc работать без MD шагов
# Но обычно GCMC совмещают с MD:
timestep        1.0 # фемтосекунды (если есть MD)
run             100000 # Количество шагов GCMC/MD
WARNING: No fixes with time integration, atoms won't move (../verlet.cpp:60)
PPPM initialization ...
  using 12-bit tables for long-range coulomb (../kspace.cpp:342)
  G vector (1/distance) = 0.2438405
  grid = 16 16 16
  stencil order = 5
  estimated absolute RMS force accuracy = 0.002249822
  estimated relative force accuracy = 6.7752721e-06
  using double precision KISS FFT
  3d grid and FFT values/proc = 2250 256
Generated 21 of 21 mixed pair_coeff terms from arithmetic mixing rule
0 atoms in group FixGCMC:gcmc_exclusion_group:GCMC
0 atoms in group FixGCMC:rotation_gas_atoms:GCMC
WARNING: Neighbor exclusions used with KSpace solver may give inconsistent Coulombic energies (../neighbor.cpp:666)
WARNING: Inconsistent image flags (../domain.cpp:1051)
Per MPI rank memory allocation (min/avg/max) = 14.24 | 14.47 | 14.93 Mbytes
   Step          Temp          Press         v_N_co2     v_ads_density      PotEng         KinEng         TotEng    
     10000   245.99777     -36504.963      0              0             -13117.624      310.17432     -12807.449    
     11000   321.15        -36195.147      104            0.0058968847  -13679.914      404.93247     -13274.982    
     12000   338.45468     -36130.689      127            0.0072010034  -13808.089      426.75163     -13381.337    
     13000   344.20128     -36056.097      135            0.0076546099  -13861.116      433.99742     -13427.118    
     14000   338.22612     -36039.517      130            0.0073711058  -13843.774      426.46345     -13417.31     
     15000   337.33682     -35938.592      136            0.0077113107  -13886.57       425.34215     -13461.228    
     16000   341.99376     -35834.255      135            0.0076546099  -13886.977      431.214       -13455.763    
     17000   347.5271      -35795.483      144            0.0081649172  -13942.541      438.19089     -13504.351    
     18000   350.46716     -35478.676      145            0.008221618   -13972.066      441.89796     -13530.168    
     19000   349.11892     -35599.822      147            0.0083350197  -13985.539      440.19799     -13545.341    
     20000   341.79319     -35544.962      146            0.0082783188  -13986.269      430.9611      -13555.308    
     21000   341.27677     -35570.313      142            0.0080515156  -13988.513      430.30996     -13558.203    
     22000   348.93635     -35305.639      150            0.0085051221  -14039.069      439.96779     -13599.102    
     23000   352.09936     -35157.242      150            0.0085051221  -14051.15       443.95598     -13607.194    
     24000   356.29353     -34836.588      152            0.0086185237  -14061.066      449.24433     -13611.821    
     25000   348.48618     -35395.535      148            0.0083917205  -14037.791      439.40018     -13598.391    
     26000   352.02011     -35084.341      154            0.0087319253  -14079.337      443.85605     -13635.481    
     27000   349.17584     -35344.901      152            0.0086185237  -14075.753      440.26976     -13635.483    
     28000   363.44136     -35122.364      163            0.0092422327  -14136.503      458.2569      -13678.247    
     29000   362.97298     -34762.058      165            0.0093556343  -14153.741      457.66634     -13696.075    
     30000   367.61017     -34608.921      168            0.0095257367  -14170.721      463.51328     -13707.208    
     31000   365.70981     -34544.878      171            0.0096958392  -14188.144      461.11716     -13727.027    
     32000   360.06594     -34335.808      166            0.0094123351  -14166.111      454.0009      -13712.11     
     33000   355.22446     -34593.157      162            0.0091855319  -14140.88       447.89636     -13692.984    
     34000   362.66269     -34549.402      167            0.0094690359  -14167.082      457.27509     -13709.807    
     35000   358.80033     -34575.722      166            0.0094123351  -14170.005      452.40511     -13717.6      
     36000   358.34923     -34520.122      170            0.0096391384  -14181.293      451.83633     -13729.457    
     37000   358.56741     -34771.505      170            0.0096391384  -14185.754      452.11143     -13733.643    
     38000   356.88151     -34617.126      165            0.0093556343  -14163.953      449.9857      -13713.967    
     39000   359.46633     -34578.567      170            0.0096391384  -14183.971      453.24486     -13730.727    
     40000   360.01825     -34604.976      169            0.0095824376  -14178.309      453.94076     -13724.368    
     41000   362.03267     -34466.257      173            0.0098092408  -14196.338      456.48072     -13739.857    
     42000   361.84584     -34526.168      174            0.0098659416  -14203.037      456.24515     -13746.792    
     43000   357.34766     -34717.414      167            0.0094690359  -14171.593      450.57346     -13721.02     
     44000   357.07548     -34802.403      169            0.0095824376  -14183.102      450.23028     -13732.871    
     45000   358.45258     -34674.718      173            0.0098092408  -14212.209      451.96664     -13760.242    
     46000   362.12621     -34434.658      175            0.0099226424  -14227.97       456.59865     -13771.371    
     47000   356.00604     -34788.153      166            0.0094123351  -14182.619      448.88184     -13733.737    
     48000   359.07338     -34707.701      170            0.0096391384  -14208.803      452.7494      -13756.054    
     49000   358.37866     -34888.612      167            0.0094690359  -14188.668      451.87343     -13736.794    
     50000   355.71283     -34863.775      163            0.0092422327  -14174.594      448.51214     -13726.082    
     51000   358.63417     -34910.175      166            0.0094123351  -14189.722      452.1956      -13737.527    
     52000   358.79759     -34700.581      169            0.0095824376  -14208.883      452.40166     -13756.481    
     53000   358.23422     -34771.815      170            0.0096391384  -14219.216      451.69132     -13767.524    
     54000   361.76327     -34441.36       171            0.0096958392  -14217.694      456.14102     -13761.553    
     55000   362.05558     -34519.652      173            0.0098092408  -14228.35       456.5096      -13771.84     
     56000   359.2675      -34303.955      172            0.00975254    -14219.606      452.99416     -13766.612    
     57000   359.27124     -34431.303      170            0.0096391384  -14218.537      452.99887     -13765.538    
     58000   356.43749     -34264.187      167            0.0094690359  -14199.088      449.42585     -13749.662    
     59000   360.39461     -34388.621      172            0.00975254    -14222.925      454.41531     -13768.51     
     60000   363.47661     -34431.228      174            0.0098659416  -14238.135      458.30135     -13779.833    
     61000   362.38025     -34659.218      174            0.0098659416  -14240.908      456.91897     -13783.989    
     62000   366.96162     -34503.459      176            0.0099793433  -14256.838      462.69553     -13794.143    
     63000   369.34088     -34582.282      176            0.0099793433  -14258.416      465.69551     -13792.721    
     64000   369.53001     -34472.788      174            0.0098659416  -14246.028      465.93397     -13780.094    
     65000   369.35833     -34235.611      175            0.0099226424  -14249.875      465.71751     -13784.157    
     66000   367.4212      -34308.927      173            0.0098092408  -14241.435      463.27501     -13778.16     
     67000   369.77692     -34137.615      177            0.010036044   -14267.64       466.2453      -13801.394    
     68000   367.88868     -34141.849      176            0.0099793433  -14260.431      463.86446     -13796.567    
     69000   367.80747     -34189.971      175            0.0099226424  -14260.521      463.76205     -13796.759    
     70000   370.72663     -33907.833      180            0.010206147   -14283.84       467.44277     -13816.397    
     71000   371.33848     -33918.379      179            0.010149446   -14282.887      468.21425     -13814.673    
     72000   373.29961     -34106.673      180            0.010206147   -14285.832      470.687       -13815.145    
     73000   372.06007     -34102.327      177            0.010036044   -14271.877      469.12409     -13802.753    
     74000   370.90525     -34088.207      177            0.010036044   -14277.264      467.66799     -13809.596    
     75000   370.38872     -34076.016      178            0.010092745   -14282.034      467.01671     -13815.018    
     76000   370.28559     -33954.482      176            0.0099793433  -14275.17       466.88667     -13808.283    
     77000   371.83895     -33879.237      178            0.010092745   -14284.143      468.84528     -13815.298    
     78000   378.77793     -33690.49       182            0.010319548   -14305.649      477.59452     -13828.055    
     79000   376.3895      -33720.208      183            0.010376249   -14309.343      474.58299     -13834.76     
     80000   374.60568     -33926.857      179            0.010149446   -14297.982      472.33381     -13825.648    
     81000   372.10538     -33986.006      177            0.010036044   -14292.621      469.18121     -13823.439    
     82000   374.23236     -34056.695      178            0.010092745   -14300.752      471.86309     -13828.889    
     83000   374.23828     -33897.524      180            0.010206147   -14310.553      471.87056     -13838.682    
     84000   375.49102     -33849.863      182            0.010319548   -14319.175      473.45011     -13845.725    
     85000   374.46645     -33941.929      179            0.010149446   -14308.301      472.15825     -13836.143    
     86000   372.01635     -34030.079      179            0.010149446   -14305.538      469.06896     -13836.469    
     87000   370.0789      -34126.35       176            0.0099793433  -14292.045      466.62607     -13825.419    
     88000   370.84338     -34126.021      177            0.010036044   -14295.779      467.58998     -13828.19     
     89000   370.73039     -34078.708      177            0.010036044   -14299.448      467.44752     -13832.001    
     90000   372.68986     -33733.099      182            0.010319548   -14317.909      469.91817     -13847.991    
     91000   373.71964     -33755.821      185            0.010489651   -14333.45       471.21661     -13862.233    
     92000   371.05344     -33839.696      181            0.010262847   -14313.455      467.85484     -13845.601    
     93000   373.34494     -33696.142      182            0.010319548   -14323.292      470.74415     -13852.548    
     94000   371.48129     -33918.4        181            0.010262847   -14321.521      468.39432     -13853.126    
     95000   372.63768     -33982.744      180            0.010206147   -14317.406      469.85239     -13847.554    
     96000   375.38759     -33925.318      182            0.010319548   -14326.985      473.3197      -13853.665    
     97000   374.53578     -33796.922      184            0.01043295    -14329.313      472.24567     -13857.068    
     98000   374.58485     -33861.987      182            0.010319548   -14329.026      472.30754     -13856.718    
     99000   372.73199     -33964.44       180            0.010206147   -14317.03       469.9713      -13847.058    
    100000   372.63377     -33910.196      181            0.010262847   -14322.144      469.84746     -13852.297    
    101000   373.07877     -33874.93       184            0.01043295    -14340.607      470.40855     -13870.199    
    102000   375.58415     -33796.684      185            0.010489651   -14349.356      473.56754     -13875.788    
    103000   374.68832     -33911.327      182            0.010319548   -14335.447      472.438       -13863.009    
    104000   373.03905     -33843.631      181            0.010262847   -14331.309      470.35846     -13860.951    
    105000   370.79296     -33889.134      181            0.010262847   -14327.389      467.52642     -13859.863    
    106000   370.43632     -33786.271      184            0.01043295    -14348.843      467.07672     -13881.766    
    107000   371.33257     -33708.092      186            0.010546351   -14355.869      468.20679     -13887.663    
    108000   371.2495      -33587.566      188            0.010659753   -14363.692      468.10205     -13895.59     
    109000   372.32531     -33736.646      185            0.010489651   -14359.867      469.45853     -13890.409    
    110000   370.84756     -33712.648      183            0.010376249   -14347.381      467.59525     -13879.786    
Loop time of 2249.83 on 20 procs for 100000 steps with 973 atoms

Performance: 3.840 ns/day, 6.250 hours/ns, 44.448 timesteps/s, 43.248 katom-step/s
100.0% CPU use with 20 MPI tasks x no OpenMP threads

MPI task timing breakdown:
Section |  min time  |  avg time  |  max time  |%varavg| %total
---------------------------------------------------------------
Pair    | 6.1352     | 11.826     | 19.309     | 116.6 |  0.53
Bond    | 0.058587   | 0.42318    | 0.77176    |  33.8 |  0.02
Kspace  | 12.763     | 20.137     | 26.224     |  89.0 |  0.90
Neigh   | 1.4232     | 1.445      | 1.4712     |   1.2 |  0.06
Comm    | 8.6955     | 9.5862     | 10.297     |  13.5 |  0.43
Output  | 0.0957     | 0.15893    | 0.20263    |   7.3 |  0.01
Modify  | 2205.5     | 2205.5     | 2205.6     |   0.1 | 98.03
Other   |            | 0.7453     |            |       |  0.03

Nlocal:          48.65 ave          63 max          34 min
Histogram: 2 4 1 0 2 1 3 3 2 2
Nghost:        3235.75 ave        3344 max        3103 min
Histogram: 4 3 1 0 0 0 0 4 6 2
Neighs:        15286.6 ave       19726 max       10678 min
Histogram: 2 4 1 0 2 1 4 2 2 2

Total # of neighbors = 305733
Ave neighs/atom = 314.21686
Ave special neighs/atom = 6.7687564
Neighbor list builds = 1001992
Dangerous builds = 0

# --- Завершение ---
print "GCMC simulation finished." 
GCMC simulation finished.
Total wall time: 0:37:32
