LAMMPS (29 Aug 2024 - Update 2)
# LAMMPS input script for GCMC simulation of CO2 in MOF-5

variable press equal ${p}
variable press equal 1.0

# --- Инициализация ---
units           real
atom_style      full
boundary        p p p

# --- Определение стилей потенциалов ---
# Важно: эти стили должны соответствовать формату коэффициентов в data.MOF5_charged_simple
# и добавленным коэффициентам для CO2.
pair_style      lj/cut/coul/long 12.0 # Катофф 12 Ангстрем для LJ и кулона
bond_style      harmonic
angle_style     hybrid fourier cosine/periodic harmonic # MOF-5 использует fourier и cosine/periodic, CO2 - harmonic
dihedral_style  harmonic # Предполагаем, что диэдрали в MOF-5 совместимы с harmonic (K d n)
improper_style  fourier # Предполагаем, что несобственные углы в MOF-5 совместимы с umbrella (K chi0)

# --- Чтение данных MOF-5 ---
# Добавляем 2 новых типа атомов (для C и O в CO2), 1 новый тип связи (C=O), 1 новый тип угла (O=C=O)
read_data       data.MOF5_charged_simple extra/atom/types 2 extra/bond/types 1 extra/angle/types 1
Reading data file ...
  triclinic box = (0 0 0) to (26.029363 26.031584 26.028346) with tilt (0.003152 -0.002169 0.002663)
  2 by 5 by 2 MPI processor grid
  reading atoms ...
  424 atoms
  scanning bonds ...
  4 = max bonds/atom
  scanning angles ...
  6 = max angles/atom
  scanning dihedrals ...
  8 = max dihedrals/atom
  scanning impropers ...
  3 = max impropers/atom
  triclinic box = (0 0 0) to (26.029363 26.031584 26.028346) with tilt (0.003152 -0.002169 0.002663)
  2 by 5 by 2 MPI processor grid
  reading bonds ...
  512 bonds
  reading angles ...
  912 angles
  reading dihedrals ...
  960 dihedrals
  reading impropers ...
  576 impropers
Finding 1-2 1-3 1-4 neighbors ...
  special bond factors lj:    0        0        0       
  special bond factors coul:  0        0        0       
     4 = max # of 1-2 neighbors
    12 = max # of 1-3 neighbors
    24 = max # of 1-4 neighbors
    22 = max # of special neighbors
  special bonds CPU = 0.001 seconds
  read_data CPU = 0.018 seconds

# --- Определение параметров для CO2 ---
# Массы для новых типов атомов (6: C_CO2, 7: O_CO2)
mass            6 12.011   # C in CO2
mass            7 15.9994  # O in CO2

# Pair Coeffs для CO2 (MOF-5 pair_coeffs читаются из data-файла)
# pair_coeff I J epsilon sigma
pair_coeff      6 6 0.0514 2.85    # C_CO2 - C_CO2
pair_coeff      7 7 0.1600 3.02    # O_CO2 - O_CO2

# Правила смешивания для межмолекулярных взаимодействий (например, MOF-CO2)
# Lorentz-Berthelot по умолчанию для lj/cut/coul/long
pair_modify     mix arithmetic

# Bond Coeffs для CO2 (тип связи 7)
# bond_coeff Type K r0
bond_coeff      7 1000.0 1.16   # C=O

# Angle Coeffs для CO2 (тип угла 10)
# angle_coeff Type K theta0 (для стиля harmonic)
angle_coeff     10 harmonic 100.0 180.0 # O=C=O

# --- Настройки дальнодействующих взаимодействий ---
kspace_style    pppm 1.0e-5

# --- Определение молекулы CO2 ---
molecule        co2mol CO2.txt
Read molecule template co2mol:
# CO2 molecule template for LAMMPS
  1 molecules
  0 fragments
  3 atoms with max type 7
  2 bonds with max type 7
  1 angles with max type 10
  0 dihedrals with max type 0
  0 impropers with max type 0

# --- Настройки GCMC ---
variable        T equal 273.0       # Температура в Кельвинах
variable        P equal 0.1         # Давление в атмосферах
variable        fug_coeff equal 1.0 # Коэффициент фугитивности (для идеального газа = 1.0)
variable        seed equal 12345    # Начальное число для генератора случайных чисел

# Группа для атомов CO2 (типы 6 и 7)
group           co2_atoms type 6 7
0 atoms in group co2_atoms


# Variables for analysis
variable N_co2  equal count(co2_atoms)/3
variable ads_density equal v_N_co2/vol

dump            dall all atom 100 dumps_T273K/dump_npt_${press}.lammpstrj
dump            dall all atom 100 dumps_T273K/dump_npt_1.lammpstrj

fix             mynpt all nvt temp 273.0 273.0 100.0

# Thermo output
thermo          100
thermo_style    custom step temp press vol density etotal
run             10000
PPPM initialization ...
WARNING: System is not charge neutral, net charge = 0.0008 (../kspace.cpp:327)
  using 12-bit tables for long-range coulomb (../kspace.cpp:342)
  G vector (1/distance) = 0.2438405
  grid = 16 16 16
  stencil order = 5
  estimated absolute RMS force accuracy = 0.002249822
  estimated relative force accuracy = 6.7752721e-06
  using double precision KISS FFT
  3d grid and FFT values/proc = 2250 256
Generated 21 of 21 mixed pair_coeff terms from arithmetic mixing rule
Neighbor list info ...
  update: every = 1 steps, delay = 0 steps, check = yes
  max neighbors/atom: 2000, page size: 100000
  master list distance cutoff = 14
  ghost atom cutoff = 14
  binsize = 7, bins = 4 4 4
  1 neighbor lists, perpetual/occasional/extra = 1 0 0
  (1) pair lj/cut/coul/long, perpetual
      attributes: half, newton on
      pair build: half/bin/newton/tri
      stencil: half/bin/3d/tri
      bin: standard
WARNING: Inconsistent image flags (../domain.cpp:1051)
Per MPI rank memory allocation (min/avg/max) = 13.24 | 13.45 | 13.94 Mbytes
   Step          Temp          Press          Volume        Density         TotEng    
         0   0             -31876.762      17636.431      0.57988585    -12893.244    
       100   210.16881     -30003.578      17636.431      0.57988585    -12871.589    
       200   260.74065     -36201.825      17636.431      0.57988585    -12854.357    
       300   229.25142     -30914.163      17636.431      0.57988585    -12843.399    
       400   331.52753     -39917.98       17636.431      0.57988585    -12829.576    
       500   352.90731     -35209.741      17636.431      0.57988585    -12835.495    
       600   368.86251     -31380.898      17636.431      0.57988585    -12825.379    
       700   296.7017      -25882.273      17636.431      0.57988585    -12840.3      
       800   382.41101     -28741.108      17636.431      0.57988585    -12844.203    
       900   332.04313     -31911.637      17636.431      0.57988585    -12835.609    
      1000   235.91716     -30239.955      17636.431      0.57988585    -12843.723    
      1100   285.28717     -33715.639      17636.431      0.57988585    -12833.271    
      1200   154.00462     -29548.696      17636.431      0.57988585    -12838.076    
      1300   239.05577     -32819.673      17636.431      0.57988585    -12839.068    
      1400   176.49302     -27790.715      17636.431      0.57988585    -12832.044    
      1500   241.49118     -30624.269      17636.431      0.57988585    -12841.411    
      1600   308.71125     -23180.139      17636.431      0.57988585    -12828.818    
      1700   306.72994     -35729.276      17636.431      0.57988585    -12840.011    
      1800   336.64499     -34452.961      17636.431      0.57988585    -12831.83     
      1900   327.48794     -35838.903      17636.431      0.57988585    -12836.817    
      2000   304.00828     -30724.962      17636.431      0.57988585    -12835.599    
      2100   304.96482     -34315.949      17636.431      0.57988585    -12836.56     
      2200   279.60707     -31039.769      17636.431      0.57988585    -12840.353    
      2300   292.08204     -31383.889      17636.431      0.57988585    -12826.543    
      2400   212.37899     -32972.582      17636.431      0.57988585    -12793.288    
      2500   271.94548     -33021.82       17636.431      0.57988585    -12801.195    
      2600   256.70199     -37512.381      17636.431      0.57988585    -12812.222    
      2700   219.78156     -34152.398      17636.431      0.57988585    -12845.519    
      2800   271.82123     -34257.578      17636.431      0.57988585    -12837.753    
      2900   314.87059     -28039.011      17636.431      0.57988585    -12847.457    
      3000   229.24186     -35369.161      17636.431      0.57988585    -12833.498    
      3100   308.65928     -27087.921      17636.431      0.57988585    -12820.524    
      3200   242.81888     -33371.086      17636.431      0.57988585    -12804.116    
      3300   307.01425     -31719.295      17636.431      0.57988585    -12807.438    
      3400   187.36661     -38476.963      17636.431      0.57988585    -12838.658    
      3500   225.23856     -32464.083      17636.431      0.57988585    -12844.601    
      3600   272.18294     -33746.793      17636.431      0.57988585    -12847.879    
      3700   239.74795     -28567.738      17636.431      0.57988585    -12834.594    
      3800   311.25952     -34843.056      17636.431      0.57988585    -12826.288    
      3900   269.67279     -34651.462      17636.431      0.57988585    -12833.336    
      4000   267.09766     -30789.996      17636.431      0.57988585    -12864.782    
      4100   271.28517     -32480.455      17636.431      0.57988585    -12872.223    
      4200   214.9928      -35968.207      17636.431      0.57988585    -12850.604    
      4300   312.29626     -34852.551      17636.431      0.57988585    -12823.207    
      4400   253.1109      -28323.86       17636.431      0.57988585    -12827.198    
      4500   239.15411     -32420.269      17636.431      0.57988585    -12831.75     
      4600   236.37088     -31567.934      17636.431      0.57988585    -12858.524    
      4700   239.43537     -37067.192      17636.431      0.57988585    -12861.818    
      4800   280.44861     -31933.548      17636.431      0.57988585    -12851.039    
      4900   262.89251     -35375.558      17636.431      0.57988585    -12850.657    
      5000   302.05799     -28526.681      17636.431      0.57988585    -12831.009    
      5100   276.62986     -34434.285      17636.431      0.57988585    -12827.804    
      5200   283.0855      -31350.397      17636.431      0.57988585    -12822.596    
      5300   317.67001     -32278.411      17636.431      0.57988585    -12843.527    
      5400   231.79196     -30558.947      17636.431      0.57988585    -12868.462    
      5500   309.04893     -35997.224      17636.431      0.57988585    -12855.521    
      5600   259.51403     -35917.317      17636.431      0.57988585    -12837.564    
      5700   318.37284     -33781.219      17636.431      0.57988585    -12830.565    
      5800   277.2725      -32445.945      17636.431      0.57988585    -12830.672    
      5900   295.63269     -30087.561      17636.431      0.57988585    -12845.642    
      6000   240.66865     -34321.266      17636.431      0.57988585    -12848.665    
      6100   242.69685     -31580.803      17636.431      0.57988585    -12859.98     
      6200   229.0487      -36467.439      17636.431      0.57988585    -12872.082    
      6300   260.21848     -31708.061      17636.431      0.57988585    -12858.392    
      6400   209.82257     -34715.064      17636.431      0.57988585    -12835.131    
      6500   283.96414     -29286.01       17636.431      0.57988585    -12823.338    
      6600   254.22148     -34305.939      17636.431      0.57988585    -12828.761    
      6700   240.95514     -30105.817      17636.431      0.57988585    -12841.98     
      6800   323.73014     -32889.298      17636.431      0.57988585    -12843.427    
      6900   254.61793     -31580.805      17636.431      0.57988585    -12850.353    
      7000   297.52631     -35711.275      17636.431      0.57988585    -12844.921    
      7100   294.46336     -32955.929      17636.431      0.57988585    -12843.969    
      7200   274.5909      -35437.046      17636.431      0.57988585    -12829.786    
      7300   281.97997     -32198.342      17636.431      0.57988585    -12823.485    
      7400   263.04529     -30434.142      17636.431      0.57988585    -12832.907    
      7500   267.61155     -31430.532      17636.431      0.57988585    -12860.244    
      7600   221.70506     -34454.309      17636.431      0.57988585    -12874.51     
      7700   298.78708     -34288.531      17636.431      0.57988585    -12863.382    
      7800   235.00712     -30765.582      17636.431      0.57988585    -12849.609    
      7900   266.23456     -35067.147      17636.431      0.57988585    -12841.009    
      8000   299.08841     -29676.054      17636.431      0.57988585    -12829.214    
      8100   280.73886     -32156.389      17636.431      0.57988585    -12825.873    
      8200   259.95766     -28432.691      17636.431      0.57988585    -12834.308    
      8300   291.24526     -34609.409      17636.431      0.57988585    -12852.621    
      8400   251.30721     -30571.046      17636.431      0.57988585    -12862.151    
      8500   249.81856     -36106.802      17636.431      0.57988585    -12845.817    
      8600   273.9227      -34228.091      17636.431      0.57988585    -12813.154    
      8700   295.07888     -35397.336      17636.431      0.57988585    -12812.252    
      8800   322.86606     -29766.076      17636.431      0.57988585    -12827.872    
      8900   298.05424     -33125.645      17636.431      0.57988585    -12849.079    
      9000   321.13971     -29603.213      17636.431      0.57988585    -12850.601    
      9100   235.81512     -33192.528      17636.431      0.57988585    -12843.71     
      9200   319.43396     -34580.546      17636.431      0.57988585    -12809.683    
      9300   334.07268     -34074.485      17636.431      0.57988585    -12781.634    
      9400   276.81797     -31114.915      17636.431      0.57988585    -12804.675    
      9500   312.41261     -32256.478      17636.431      0.57988585    -12820.455    
      9600   242.45885     -33222.201      17636.431      0.57988585    -12839.807    
      9700   276.69172     -29795.803      17636.431      0.57988585    -12853.921    
      9800   249.47156     -31522.048      17636.431      0.57988585    -12853.233    
      9900   233.84253     -32002.505      17636.431      0.57988585    -12834.139    
     10000   245.99777     -36504.963      17636.431      0.57988585    -12807.449    
Loop time of 2.37044 on 20 procs for 10000 steps with 424 atoms

Performance: 364.490 ns/day, 0.066 hours/ns, 4218.634 timesteps/s, 1.789 Matom-step/s
99.9% CPU use with 20 MPI tasks x no OpenMP threads

MPI task timing breakdown:
Section |  min time  |  avg time  |  max time  |%varavg| %total
---------------------------------------------------------------
Pair    | 0.015775   | 0.2144     | 0.48637    |  35.7 |  9.04
Bond    | 0.0052684  | 0.038675   | 0.079126   |  13.0 |  1.63
Kspace  | 1.1835     | 1.4579     | 1.6879     |  13.9 | 61.50
Neigh   | 0.0089663  | 0.0093689  | 0.0096145  |   0.2 |  0.40
Comm    | 0.51839    | 0.56285    | 0.62287    |   3.5 | 23.74
Output  | 0.0049498  | 0.0078652  | 0.010601   |   2.0 |  0.33
Modify  | 0.017323   | 0.038537   | 0.055946   |   5.7 |  1.63
Other   |            | 0.04082    |            |       |  1.72

Nlocal:           21.2 ave          41 max           1 min
Histogram: 4 3 1 0 1 2 1 0 3 5
Nghost:           1633 ave        1766 max        1457 min
Histogram: 8 0 0 0 0 0 0 0 5 7
Neighs:         2667.3 ave        5201 max         134 min
Histogram: 6 2 0 0 1 3 0 0 3 5

Total # of neighbors = 53346
Ave neighs/atom = 125.81604
Ave special neighs/atom = 12.943396
Neighbor list builds = 27
Dangerous builds = 0
unfix           mynpt


# Fix GCMC
# N: выполнять GCMC каждые N шагов
# Nexchange: количество попыток обмена (вставка/удаление)
# Ntranslate_rotate_mol: количество попыток трансляции/вращения молекулы
# Nrigidbody_... : 0, так как CO2 у нас гибкий
# mol co2mol: используемый шаблон молекулы
# full_energy: пересчитывать полную энергию системы (рекомендуется)
# pressure ${P}: давление (LAMMPS вычислит химический потенциал)
# displace: максимальное смещение для трансляции молекулы (в Ангстремах)
#fix             gcmc_run all gcmc 100 100 100 0 ${seed} ${T} ${P} ${fug_coeff} mol co2mol full_energy displace 0.5
fix             GCMC co2_atoms gcmc 100 1000 0 0 12345 273.0 -5.0 0.5 mol co2mol pressure ${press} full_energy group co2_atoms
fix             GCMC co2_atoms gcmc 100 1000 0 0 12345 273.0 -5.0 0.5 mol co2mol pressure 1 full_energy group co2_atoms

# --- Настройки вывода ---
#thermo_style    custom step temp press pe etotal natoms ncmc_insert ncmc_delete ncmc_trans ncmc_rotate ncmc_attempt ncmc_accept atoms_in_gcmc_mol


thermo          1000
thermo_style    custom step temp press v_N_co2 v_ads_density pe ke etotal
dump            gcmc_dump all atom 500 dumps_T273K/dump.gcmc_mof5_co2_${press}.lammpstrj
dump            gcmc_dump all atom 500 dumps_T273K/dump.gcmc_mof5_co2_1.lammpstrj

# --- Запуск симуляции ---
# Для GCMC обычно не нужен MD integrator для всей системы, если только не изучается динамика каркаса.
# Если каркас должен быть подвижен, добавьте fix nvt для атомов MOF-5.
# Например, если атомы MOF-5 должны оставаться фиксированными:
# group mof_atoms type <= 5
# fix freeze_mof mof_atoms setforce 0.0 0.0 0.0
# Однако, для GCMC лучше, чтобы каркас был термостатирован, если он не абсолютно жесткий.
# Если вы хотите просто провести GCMC без MD шагов для каркаса:
# run 0 post no # Это позволит fix gcmc работать без MD шагов
# Но обычно GCMC совмещают с MD:
timestep        1.0 # фемтосекунды (если есть MD)
run             100000 # Количество шагов GCMC/MD
WARNING: No fixes with time integration, atoms won't move (../verlet.cpp:60)
PPPM initialization ...
  using 12-bit tables for long-range coulomb (../kspace.cpp:342)
  G vector (1/distance) = 0.2438405
  grid = 16 16 16
  stencil order = 5
  estimated absolute RMS force accuracy = 0.002249822
  estimated relative force accuracy = 6.7752721e-06
  using double precision KISS FFT
  3d grid and FFT values/proc = 2250 256
Generated 21 of 21 mixed pair_coeff terms from arithmetic mixing rule
0 atoms in group FixGCMC:gcmc_exclusion_group:GCMC
0 atoms in group FixGCMC:rotation_gas_atoms:GCMC
WARNING: Neighbor exclusions used with KSpace solver may give inconsistent Coulombic energies (../neighbor.cpp:666)
WARNING: Inconsistent image flags (../domain.cpp:1051)
Per MPI rank memory allocation (min/avg/max) = 14.24 | 14.47 | 14.93 Mbytes
   Step          Temp          Press         v_N_co2     v_ads_density      PotEng         KinEng         TotEng    
     10000   245.99777     -36504.963      0              0             -13117.624      310.17432     -12807.449    
     11000   292.51402     -36227.703      73             0.0041391594  -13547.733      368.82585     -13178.907    
     12000   303.04767     -36270.081      101            0.0057267822  -13740.336      382.10755     -13358.228    
     13000   310.69401     -36006.233      117            0.0066339952  -13842.01       391.74869     -13450.261    
     14000   311.3859      -36140.24       107            0.0060669871  -13804.538      392.62108     -13411.917    
     15000   312.7921      -35759.761      114            0.0064638928  -13858.033      394.39414     -13463.639    
     16000   319.69135     -36091.318      121            0.0068607985  -13908.21       403.09327     -13505.117    
     17000   319.35752     -35960.529      120            0.0068040977  -13906.727      402.67236     -13504.055    
     18000   330.71449     -35711.265      129            0.007314405   -13969.637      416.99216     -13552.645    
     19000   328.00691     -35588.959      136            0.0077113107  -14016.683      413.57822     -13603.105    
     20000   331.85668     -35277.807      139            0.0078814131  -14028.795      418.43234     -13610.363    
     21000   321.58246     -35617.11       130            0.0073711058  -13987.871      405.47775     -13582.394    
     22000   328.22311     -35722.185      133            0.0075412083  -14008.086      413.85082     -13594.235    
     23000   324.24951     -35649.138      130            0.0073711058  -14000.584      408.84058     -13591.743    
     24000   337.60257     -35515.167      148            0.0083917205  -14091.815      425.67723     -13666.138    
     25000   322.43983     -35563.537      139            0.0078814131  -14049.493      406.55879     -13642.934    
     26000   329.50975     -35491.422      148            0.0083917205  -14094.221      415.47312     -13678.747    
     27000   322.58763     -35610.283      135            0.0076546099  -14023.721      406.74515     -13616.976    
     28000   325.81659     -35611.007      141            0.0079948148  -14057.394      410.81649     -13646.578    
     29000   326.48582     -35532.178      132            0.0074845074  -14017.832      411.66031     -13606.172    
     30000   330.35836     -35192.143      135            0.0076546099  -14027.631      416.54313     -13611.087    
     31000   329.8245      -35407.774      139            0.0078814131  -14062.729      415.86999     -13646.859    
     32000   331.12197     -35355.456      139            0.0078814131  -14058.952      417.50594     -13641.446    
     33000   324.37998     -35218.881      131            0.0074278066  -14024.737      409.00509     -13615.732    
     34000   331.23523     -35315.951      139            0.0078814131  -14058.694      417.64876     -13641.045    
     35000   339.2777      -35028.576      151            0.0085618229  -14127.617      427.78937     -13699.827    
     36000   335.07879     -35125.735      148            0.0083917205  -14116.281      422.49503     -13693.786    
     37000   337.92529     -34929.011      147            0.0083350197  -14106.109      426.08414     -13680.025    
     38000   334.3623      -35129.602      147            0.0083350197  -14108.831      421.59162     -13687.239    
     39000   332.68093     -35387.697      144            0.0081649172  -14095.827      419.47162     -13676.356    
     40000   335.45548     -35543.477      147            0.0083350197  -14107.914      422.96999     -13684.944    
     41000   334.3846      -35374.872      139            0.0078814131  -14072.163      421.61973     -13650.543    
     42000   330.08409     -35265.331      138            0.0078247123  -14068.065      416.1973      -13651.868    
     43000   335.61303     -35563.8        142            0.0080515156  -14085.839      423.16865     -13662.67     
     44000   333.65251     -35414.478      141            0.0079948148  -14092.701      420.69666     -13672.005    
     45000   338.15671     -35294.771      147            0.0083350197  -14127.671      426.37593     -13701.295    
     46000   332.09893     -35535.569      145            0.008221618   -14121.002      418.73778     -13702.264    
     47000   332.32893     -35519.528      145            0.008221618   -14126.569      419.02778     -13707.541    
     48000   331.64435     -35549.512      145            0.008221618   -14117.572      418.16461     -13699.407    
     49000   332.42864     -35422.058      145            0.008221618   -14124.542      419.15351     -13705.389    
     50000   331.27648     -35158.482      146            0.0082783188  -14135.874      417.70077     -13718.173    
     51000   332.50195     -35213.09       145            0.008221618   -14124.252      419.24594     -13705.006    
     52000   333.40049     -35221.305      144            0.0081649172  -14124.714      420.3789      -13704.335    
     53000   337.11005     -35149.615      149            0.0084484213  -14140.467      425.05621     -13715.411    
     54000   335.42903     -35115.586      145            0.008221618   -14131.21       422.93664     -13708.274    
     55000   338.19317     -35034.052      147            0.0083350197  -14137.71       426.4219      -13711.288    
     56000   348.2534      -35066.795      159            0.0090154294  -14206.58       439.10667     -13767.473    
     57000   338.66943     -34763.065      152            0.0086185237  -14170.549      427.02241     -13743.526    
     58000   340.08374     -34961.076      153            0.0086752245  -14175          428.80568     -13746.194    
     59000   344.31803     -34969.996      155            0.0087886262  -14192.663      434.14463     -13758.519    
     60000   339.62655     -35025.653      153            0.0086752245  -14183.033      428.22923     -13754.803    
     61000   344.95814     -34969.349      157            0.0089020278  -14211.867      434.95173     -13776.915    
     62000   345.76831     -35069.416      157            0.0089020278  -14206.119      435.97326     -13770.146    
     63000   346.03795     -34986.026      161            0.009128831   -14224.357      436.31325     -13788.044    
     64000   346.10166     -34847.37       154            0.0087319253  -14183.517      436.39358     -13747.123    
     65000   344.83788     -35104.726      153            0.0086752245  -14181.081      434.8001      -13746.281    
     66000   343.4186      -35104.521      153            0.0086752245  -14190.894      433.01056     -13757.884    
     67000   342.40242     -35101.971      155            0.0087886262  -14206.615      431.72927     -13774.886    
     68000   342.61968     -34701.648      156            0.008845327   -14214.143      432.00322     -13782.14     
     69000   343.49721     -35082.547      154            0.0087319253  -14207.615      433.10967     -13774.505    
     70000   340.02503     -35059.183      157            0.0089020278  -14221.756      428.73166     -13793.024    
     71000   340.63025     -35058.561      155            0.0087886262  -14218.487      429.49478     -13788.992    
     72000   346.23558     -35023.281      158            0.0089587286  -14230.571      436.56244     -13794.008    
     73000   345.25407     -34957.873      157            0.0089020278  -14221.954      435.32486     -13786.629    
     74000   339.30234     -35022.892      150            0.0085051221  -14191.541      427.82044     -13763.72     
     75000   338.92655     -34964.495      152            0.0086185237  -14200.32       427.3466      -13772.974    
     76000   338.50071     -34907.041      149            0.0084484213  -14188.009      426.80967     -13761.199    
     77000   339.30559     -34947.767      151            0.0085618229  -14192.728      427.82454     -13764.903    
     78000   343.55899     -34917.167      155            0.0087886262  -14212.618      433.18756     -13779.43     
     79000   342.11114     -34991.548      153            0.0086752245  -14200.036      431.362       -13768.674    
     80000   341.2887      -35005.138      152            0.0086185237  -14200.744      430.325       -13770.419    
     81000   346.55706     -35078.848      154            0.0087319253  -14216.96       436.96779     -13779.992    
     82000   348.07613     -35116.466      156            0.008845327   -14221.115      438.88315     -13782.232    
     83000   343.04882     -35157.083      152            0.0086185237  -14198.747      432.54431     -13766.202    
     84000   349.17538     -35099.255      158            0.0089587286  -14233.338      440.26918     -13793.068    
     85000   346.02271     -34827.487      153            0.0086752245  -14206.087      436.29404     -13769.792    
     86000   346.06771     -35088.844      153            0.0086752245  -14215.096      436.35077     -13778.745    
     87000   345.6093      -34991.952      154            0.0087319253  -14221.472      435.77277     -13785.699    
     88000   349.44773     -34957.527      158            0.0089587286  -14241.831      440.61258     -13801.218    
     89000   348.19118     -34873.941      157            0.0089020278  -14238.809      439.02821     -13799.781    
     90000   345.49934     -34980.278      155            0.0087886262  -14231.652      435.63413     -13796.018    
     91000   350.83404     -35007.44       160            0.0090721302  -14257.87       442.36055     -13815.509    
     92000   350.80144     -34856.214      161            0.009128831   -14266.531      442.31945     -13824.212    
     93000   346.21081     -34985.171      158            0.0089587286  -14258.413      436.5312      -13821.881    
     94000   346.04544     -34994.643      158            0.0089587286  -14260.567      436.32269     -13824.244    
     95000   346.91562     -34988.793      160            0.0090721302  -14267.85       437.41989     -13830.43     
     96000   349.52859     -35043.078      164            0.0092989335  -14288.441      440.71454     -13847.727    
     97000   350.53515     -35075.516      163            0.0092422327  -14279.928      441.98369     -13837.944    
     98000   344.64833     -34917.991      157            0.0089020278  -14247.551      434.5611      -13812.99     
     99000   349.94272     -34693.269      161            0.009128831   -14261.131      441.2367      -13819.894    
    100000   348.58836     -34915.359      160            0.0090721302  -14255.451      439.52901     -13815.922    
    101000   347.58295     -35152.047      159            0.0090154294  -14260.339      438.26131     -13822.078    
    102000   346.41959     -35187.411      158            0.0089587286  -14256.909      436.79445     -13820.114    
    103000   345.22623     -35089.288      157            0.0089020278  -14253.763      435.28976     -13818.473    
    104000   344.4285      -35104.571      158            0.0089587286  -14261.479      434.28392     -13827.195    
    105000   346.51004     -35109.481      158            0.0089587286  -14254.151      436.90849     -13817.242    
    106000   341.72396     -35120.366      155            0.0087886262  -14237.665      430.87382     -13806.791    
    107000   348.33036     -35007.114      162            0.0091855319  -14269.268      439.20371     -13830.064    
    108000   346.12758     -34847.442      161            0.009128831   -14263.308      436.42626     -13826.882    
    109000   344.67519     -34829.708      155            0.0087886262  -14235.17       434.59496     -13800.575    
    110000   348.67673     -34951.837      158            0.0089587286  -14247.277      439.64044     -13807.637    
Loop time of 2175.33 on 20 procs for 100000 steps with 898 atoms

Performance: 3.972 ns/day, 6.043 hours/ns, 45.970 timesteps/s, 41.281 katom-step/s
100.0% CPU use with 20 MPI tasks x no OpenMP threads

MPI task timing breakdown:
Section |  min time  |  avg time  |  max time  |%varavg| %total
---------------------------------------------------------------
Pair    | 4.8941     | 10.264     | 19.024     |  92.0 |  0.47
Bond    | 0.082751   | 0.40829    | 0.75306    |  30.0 |  0.02
Kspace  | 13.351     | 22.367     | 27.284     |  62.5 |  1.03
Neigh   | 1.3961     | 1.4127     | 1.4428     |   1.2 |  0.06
Comm    | 7.4562     | 8.2734     | 8.9384     |  14.8 |  0.38
Output  | 0.095102   | 0.15293    | 0.19106    |   6.7 |  0.01
Modify  | 2131.8     | 2131.8     | 2131.9     |   0.1 | 98.00
Other   |            | 0.6214     |            |       |  0.03

Nlocal:           44.9 ave          66 max          29 min
Histogram: 1 3 6 2 0 1 3 3 0 1
Nghost:        3003.55 ave        3125 max        2836 min
Histogram: 1 2 4 1 0 0 0 5 5 2
Neighs:        12979.5 ave       19182 max        8340 min
Histogram: 1 2 4 5 1 0 3 3 0 1

Total # of neighbors = 259591
Ave neighs/atom = 289.07684
Ave special neighs/atom = 7.1670379
Neighbor list builds = 1001992
Dangerous builds = 0

# --- Завершение ---
print "GCMC simulation finished." 
GCMC simulation finished.
Total wall time: 0:36:17
