LAMMPS (29 Aug 2024 - Update 2)
# LAMMPS input script for GCMC simulation of CO2 in MOF-5

variable press equal ${p}
variable press equal 1.0

# --- Инициализация ---
units           real
atom_style      full
boundary        p p p

# --- Определение стилей потенциалов ---
# Важно: эти стили должны соответствовать формату коэффициентов в data.MOF5_charged_simple
# и добавленным коэффициентам для CO2.
pair_style      lj/cut/coul/long 12.0 # Катофф 12 Ангстрем для LJ и кулона
bond_style      harmonic
angle_style     hybrid fourier cosine/periodic harmonic # MOF-5 использует fourier и cosine/periodic, CO2 - harmonic
dihedral_style  harmonic # Предполагаем, что диэдрали в MOF-5 совместимы с harmonic (K d n)
improper_style  fourier # Предполагаем, что несобственные углы в MOF-5 совместимы с umbrella (K chi0)

# --- Чтение данных MOF-5 ---
# Добавляем 2 новых типа атомов (для C и O в CO2), 1 новый тип связи (C=O), 1 новый тип угла (O=C=O)
read_data       data.MOF5_charged_simple extra/atom/types 2 extra/bond/types 1 extra/angle/types 1
Reading data file ...
  triclinic box = (0 0 0) to (26.029363 26.031584 26.028346) with tilt (0.003152 -0.002169 0.002663)
  2 by 5 by 2 MPI processor grid
  reading atoms ...
  424 atoms
  scanning bonds ...
  4 = max bonds/atom
  scanning angles ...
  6 = max angles/atom
  scanning dihedrals ...
  8 = max dihedrals/atom
  scanning impropers ...
  3 = max impropers/atom
  triclinic box = (0 0 0) to (26.029363 26.031584 26.028346) with tilt (0.003152 -0.002169 0.002663)
  2 by 5 by 2 MPI processor grid
  reading bonds ...
  512 bonds
  reading angles ...
  912 angles
  reading dihedrals ...
  960 dihedrals
  reading impropers ...
  576 impropers
Finding 1-2 1-3 1-4 neighbors ...
  special bond factors lj:    0        0        0       
  special bond factors coul:  0        0        0       
     4 = max # of 1-2 neighbors
    12 = max # of 1-3 neighbors
    24 = max # of 1-4 neighbors
    22 = max # of special neighbors
  special bonds CPU = 0.001 seconds
  read_data CPU = 0.016 seconds

# --- Определение параметров для CO2 ---
# Массы для новых типов атомов (6: C_CO2, 7: O_CO2)
mass            6 12.011   # C in CO2
mass            7 15.9994  # O in CO2

# Pair Coeffs для CO2 (MOF-5 pair_coeffs читаются из data-файла)
# pair_coeff I J epsilon sigma
pair_coeff      6 6 0.0514 2.85    # C_CO2 - C_CO2
pair_coeff      7 7 0.1600 3.02    # O_CO2 - O_CO2

# Правила смешивания для межмолекулярных взаимодействий (например, MOF-CO2)
# Lorentz-Berthelot по умолчанию для lj/cut/coul/long
pair_modify     mix arithmetic

# Bond Coeffs для CO2 (тип связи 7)
# bond_coeff Type K r0
bond_coeff      7 1000.0 1.16   # C=O

# Angle Coeffs для CO2 (тип угла 10)
# angle_coeff Type K theta0 (для стиля harmonic)
angle_coeff     10 harmonic 100.0 180.0 # O=C=O

# --- Настройки дальнодействующих взаимодействий ---
kspace_style    pppm 1.0e-5

# --- Определение молекулы CO2 ---
molecule        co2mol CO2.txt
Read molecule template co2mol:
# CO2 molecule template for LAMMPS
  1 molecules
  0 fragments
  3 atoms with max type 7
  2 bonds with max type 7
  1 angles with max type 10
  0 dihedrals with max type 0
  0 impropers with max type 0

# --- Настройки GCMC ---
variable        T equal 323.0       # Температура в Кельвинах
variable        P equal 0.1         # Давление в атмосферах
variable        fug_coeff equal 1.0 # Коэффициент фугитивности (для идеального газа = 1.0)
variable        seed equal 12345    # Начальное число для генератора случайных чисел

# Группа для атомов CO2 (типы 6 и 7)
group           co2_atoms type 6 7
0 atoms in group co2_atoms


# Variables for analysis
variable N_co2  equal count(co2_atoms)/3
variable ads_density equal v_N_co2/vol

dump            dall all atom 100 dumps_T323K/dump_npt_${press}.lammpstrj
dump            dall all atom 100 dumps_T323K/dump_npt_1.lammpstrj

fix             mynpt all nvt temp 323.0 323.0 100.0

# Thermo output
thermo          100
thermo_style    custom step temp press vol density etotal
run             10000
PPPM initialization ...
WARNING: System is not charge neutral, net charge = 0.0008 (../kspace.cpp:327)
  using 12-bit tables for long-range coulomb (../kspace.cpp:342)
  G vector (1/distance) = 0.2438405
  grid = 16 16 16
  stencil order = 5
  estimated absolute RMS force accuracy = 0.002249822
  estimated relative force accuracy = 6.7752721e-06
  using double precision KISS FFT
  3d grid and FFT values/proc = 2250 256
Generated 21 of 21 mixed pair_coeff terms from arithmetic mixing rule
Neighbor list info ...
  update: every = 1 steps, delay = 0 steps, check = yes
  max neighbors/atom: 2000, page size: 100000
  master list distance cutoff = 14
  ghost atom cutoff = 14
  binsize = 7, bins = 4 4 4
  1 neighbor lists, perpetual/occasional/extra = 1 0 0
  (1) pair lj/cut/coul/long, perpetual
      attributes: half, newton on
      pair build: half/bin/newton/tri
      stencil: half/bin/3d/tri
      bin: standard
WARNING: Inconsistent image flags (../domain.cpp:1051)
Per MPI rank memory allocation (min/avg/max) = 13.24 | 13.45 | 13.94 Mbytes
   Step          Temp          Press          Volume        Density         TotEng    
         0   0             -31876.762      17636.431      0.57988585    -12893.244    
       100   215.81618     -30001.165      17636.431      0.57988585    -12852.782    
       200   281.55273     -36317.207      17636.431      0.57988585    -12801.14     
       300   262.60426     -30731.372      17636.431      0.57988585    -12747.62     
       400   394.40769     -40419.447      17636.431      0.57988585    -12697.432    
       500   426.81384     -35339.342      17636.431      0.57988585    -12696.734    
       600   445.68342     -31391.172      17636.431      0.57988585    -12689.675    
       700   340.06177     -25335.541      17636.431      0.57988585    -12717.188    
       800   451.84125     -28127.584      17636.431      0.57988585    -12720.132    
       900   379.29813     -31931.356      17636.431      0.57988585    -12720.725    
      1000   270.18168     -31077.301      17636.431      0.57988585    -12717.292    
      1100   339.98184     -33991.773      17636.431      0.57988585    -12696.176    
      1200   195.28269     -28892.759      17636.431      0.57988585    -12701.275    
      1300   282.99437     -33038.819      17636.431      0.57988585    -12700.492    
      1400   210.67863     -27567.06       17636.431      0.57988585    -12705.28     
      1500   282.12906     -30224.155      17636.431      0.57988585    -12714.942    
      1600   328.85229     -22078.071      17636.431      0.57988585    -12701.208    
      1700   382.91382     -35034.265      17636.431      0.57988585    -12717.371    
      1800   420.6539      -34460.1        17636.431      0.57988585    -12699.376    
      1900   418.914       -35943.285      17636.431      0.57988585    -12712.641    
      2000   380.01732     -30465.413      17636.431      0.57988585    -12705.189    
      2100   322.66364     -34064.749      17636.431      0.57988585    -12709.981    
      2200   359.36629     -31349.062      17636.431      0.57988585    -12714.465    
      2300   349.70166     -32554.359      17636.431      0.57988585    -12706.125    
      2400   257.6496      -32639.685      17636.431      0.57988585    -12728.108    
      2500   298.59265     -32249.594      17636.431      0.57988585    -12764.441    
      2600   312.23191     -37500.746      17636.431      0.57988585    -12757.061    
      2700   207.57477     -34939.896      17636.431      0.57988585    -12735.499    
      2800   310.60139     -33272.706      17636.431      0.57988585    -12705.258    
      2900   346.50855     -27451.324      17636.431      0.57988585    -12703.437    
      3000   282.44179     -36423.597      17636.431      0.57988585    -12698.516    
      3100   274.08276     -27991.942      17636.431      0.57988585    -12713.951    
      3200   262.19885     -33881.414      17636.431      0.57988585    -12735.863    
      3300   285.9436      -31264.444      17636.431      0.57988585    -12745.837    
      3400   250.26332     -36839.027      17636.431      0.57988585    -12729.452    
      3500   320.89821     -32406.504      17636.431      0.57988585    -12689.55     
      3600   286.76949     -35394.447      17636.431      0.57988585    -12701.984    
      3700   348.54134     -27216.039      17636.431      0.57988585    -12709.061    
      3800   362.91049     -32291.497      17636.431      0.57988585    -12718.519    
      3900   272.51178     -36458.802      17636.431      0.57988585    -12724.6      
      4000   317.84721     -34604.681      17636.431      0.57988585    -12718.236    
      4100   312.9391      -31051.559      17636.431      0.57988585    -12692.491    
      4200   339.83938     -33642.104      17636.431      0.57988585    -12672.498    
      4300   354.7981      -35210.029      17636.431      0.57988585    -12682.861    
      4400   259.70529     -29758.068      17636.431      0.57988585    -12712.429    
      4500   340.74322     -32471.531      17636.431      0.57988585    -12709.159    
      4600   231.27998     -32365.622      17636.431      0.57988585    -12722.965    
      4700   297.52611     -34821.24       17636.431      0.57988585    -12709.38     
      4800   308.41525     -31851.596      17636.431      0.57988585    -12714.389    
      4900   273.07485     -37177.471      17636.431      0.57988585    -12680.335    
      5000   413.73709     -30325.593      17636.431      0.57988585    -12656.254    
      5100   352.48701     -32706.645      17636.431      0.57988585    -12677.771    
      5200   403.85155     -30467.339      17636.431      0.57988585    -12702.589    
      5300   360.57713     -34303.642      17636.431      0.57988585    -12716.091    
      5400   316.05582     -31392.348      17636.431      0.57988585    -12717.545    
      5500   366.53112     -34568.185      17636.431      0.57988585    -12712.912    
      5600   341.29204     -32093.109      17636.431      0.57988585    -12694.14     
      5700   415.11301     -31573.514      17636.431      0.57988585    -12664.193    
      5800   268.87048     -32939.527      17636.431      0.57988585    -12682.871    
      5900   352.51233     -34135.107      17636.431      0.57988585    -12718.386    
      6000   319.05151     -32608.673      17636.431      0.57988585    -12718.658    
      6100   296.66595     -32907.616      17636.431      0.57988585    -12719.439    
      6200   329.00581     -35954.011      17636.431      0.57988585    -12700.748    
      6300   327.93603     -33063.934      17636.431      0.57988585    -12691.389    
      6400   300.73056     -33438.202      17636.431      0.57988585    -12675.825    
      6500   362.67132     -29683.067      17636.431      0.57988585    -12696.512    
      6600   275.88072     -35249.145      17636.431      0.57988585    -12734.319    
      6700   313.79794     -31848.612      17636.431      0.57988585    -12731.9      
      6800   304.34351     -35895.593      17636.431      0.57988585    -12719.66     
      6900   344.56141     -33906.462      17636.431      0.57988585    -12696.011    
      7000   371.45165     -34955.897      17636.431      0.57988585    -12694.358    
      7100   338.66074     -29056.755      17636.431      0.57988585    -12705.775    
      7200   381.3116      -33526.153      17636.431      0.57988585    -12706.939    
      7300   282.84647     -31702.591      17636.431      0.57988585    -12716.825    
      7400   375.52777     -33180.7        17636.431      0.57988585    -12713.397    
      7500   321.7016      -30664.132      17636.431      0.57988585    -12714.396    
      7600   294.38204     -34332.778      17636.431      0.57988585    -12707.772    
      7700   392.31678     -33630.251      17636.431      0.57988585    -12696.306    
      7800   251.7077      -34759.532      17636.431      0.57988585    -12708.713    
      7900   339.39652     -32030.443      17636.431      0.57988585    -12723.116    
      8000   299.66703     -30004.212      17636.431      0.57988585    -12751.906    
      8100   286.05985     -30819.554      17636.431      0.57988585    -12743.757    
      8200   335.50791     -31194.225      17636.431      0.57988585    -12695.228    
      8300   331.17347     -35818.493      17636.431      0.57988585    -12694.317    
      8400   357.17649     -32925.788      17636.431      0.57988585    -12703.492    
      8500   329.42909     -33606.989      17636.431      0.57988585    -12725.7      
      8600   325.01993     -30239.564      17636.431      0.57988585    -12728.001    
      8700   378.34816     -32306.347      17636.431      0.57988585    -12712.078    
      8800   319.27086     -28881.035      17636.431      0.57988585    -12666.95     
      8900   363.35742     -34527.111      17636.431      0.57988585    -12678.495    
      9000   336.07195     -31412.757      17636.431      0.57988585    -12694.557    
      9100   268.483       -35813.539      17636.431      0.57988585    -12725.163    
      9200   313.87554     -33949.081      17636.431      0.57988585    -12723.837    
      9300   282.67743     -36742.976      17636.431      0.57988585    -12719.089    
      9400   343.29497     -30924.611      17636.431      0.57988585    -12706.326    
      9500   348.47083     -31381.873      17636.431      0.57988585    -12670.665    
      9600   350.60238     -30019.565      17636.431      0.57988585    -12663.655    
      9700   343.57025     -33164.766      17636.431      0.57988585    -12688.487    
      9800   308.45472     -32787.478      17636.431      0.57988585    -12718.896    
      9900   303.90362     -36082.817      17636.431      0.57988585    -12714.978    
     10000   303.20628     -33935.223      17636.431      0.57988585    -12714.548    
Loop time of 2.37895 on 20 procs for 10000 steps with 424 atoms

Performance: 363.186 ns/day, 0.066 hours/ns, 4203.538 timesteps/s, 1.782 Matom-step/s
99.9% CPU use with 20 MPI tasks x no OpenMP threads

MPI task timing breakdown:
Section |  min time  |  avg time  |  max time  |%varavg| %total
---------------------------------------------------------------
Pair    | 0.01927    | 0.22068    | 0.47206    |  36.8 |  9.28
Bond    | 0.0056264  | 0.039855   | 0.084264   |  13.7 |  1.68
Kspace  | 1.1509     | 1.4255     | 1.642      |  15.2 | 59.92
Neigh   | 0.022869   | 0.023939   | 0.02496    |   0.4 |  1.01
Comm    | 0.54142    | 0.58183    | 0.63453    |   3.0 | 24.46
Output  | 0.0048082  | 0.007477   | 0.010099   |   1.9 |  0.31
Modify  | 0.021585   | 0.032054   | 0.046018   |   4.4 |  1.35
Other   |            | 0.04758    |            |       |  2.00

Nlocal:           21.2 ave          39 max           1 min
Histogram: 3 3 2 0 1 3 0 0 2 6
Nghost:         1625.8 ave        1751 max        1457 min
Histogram: 8 0 0 0 0 0 0 0 4 8
Neighs:        2671.55 ave        4961 max         134 min
Histogram: 3 3 2 0 2 2 0 0 2 6

Total # of neighbors = 53431
Ave neighs/atom = 126.01651
Ave special neighs/atom = 12.943396
Neighbor list builds = 65
Dangerous builds = 0
unfix           mynpt


# Fix GCMC
# N: выполнять GCMC каждые N шагов
# Nexchange: количество попыток обмена (вставка/удаление)
# Ntranslate_rotate_mol: количество попыток трансляции/вращения молекулы
# Nrigidbody_... : 0, так как CO2 у нас гибкий
# mol co2mol: используемый шаблон молекулы
# full_energy: пересчитывать полную энергию системы (рекомендуется)
# pressure ${P}: давление (LAMMPS вычислит химический потенциал)
# displace: максимальное смещение для трансляции молекулы (в Ангстремах)
#fix             gcmc_run all gcmc 100 100 100 0 ${seed} ${T} ${P} ${fug_coeff} mol co2mol full_energy displace 0.5
fix             GCMC co2_atoms gcmc 100 1000 0 0 12345 323.0 -5.0 0.5 mol co2mol pressure ${press} full_energy group co2_atoms
fix             GCMC co2_atoms gcmc 100 1000 0 0 12345 323.0 -5.0 0.5 mol co2mol pressure 1 full_energy group co2_atoms

# --- Настройки вывода ---
#thermo_style    custom step temp press pe etotal natoms ncmc_insert ncmc_delete ncmc_trans ncmc_rotate ncmc_attempt ncmc_accept atoms_in_gcmc_mol


thermo          1000
thermo_style    custom step temp press v_N_co2 v_ads_density pe ke etotal
dump            gcmc_dump all atom 500 dumps_T323K/dump.gcmc_mof5_co2_${press}.lammpstrj
dump            gcmc_dump all atom 500 dumps_T323K/dump.gcmc_mof5_co2_1.lammpstrj

# --- Запуск симуляции ---
# Для GCMC обычно не нужен MD integrator для всей системы, если только не изучается динамика каркаса.
# Если каркас должен быть подвижен, добавьте fix nvt для атомов MOF-5.
# Например, если атомы MOF-5 должны оставаться фиксированными:
# group mof_atoms type <= 5
# fix freeze_mof mof_atoms setforce 0.0 0.0 0.0
# Однако, для GCMC лучше, чтобы каркас был термостатирован, если он не абсолютно жесткий.
# Если вы хотите просто провести GCMC без MD шагов для каркаса:
# run 0 post no # Это позволит fix gcmc работать без MD шагов
# Но обычно GCMC совмещают с MD:
timestep        1.0 # фемтосекунды (если есть MD)
run             100000 # Количество шагов GCMC/MD
WARNING: No fixes with time integration, atoms won't move (../verlet.cpp:60)
PPPM initialization ...
  using 12-bit tables for long-range coulomb (../kspace.cpp:342)
  G vector (1/distance) = 0.2438405
  grid = 16 16 16
  stencil order = 5
  estimated absolute RMS force accuracy = 0.002249822
  estimated relative force accuracy = 6.7752721e-06
  using double precision KISS FFT
  3d grid and FFT values/proc = 2250 256
Generated 21 of 21 mixed pair_coeff terms from arithmetic mixing rule
0 atoms in group FixGCMC:gcmc_exclusion_group:GCMC
0 atoms in group FixGCMC:rotation_gas_atoms:GCMC
WARNING: Neighbor exclusions used with KSpace solver may give inconsistent Coulombic energies (../neighbor.cpp:666)
WARNING: Inconsistent image flags (../domain.cpp:1051)
Per MPI rank memory allocation (min/avg/max) = 14.24 | 14.49 | 14.94 Mbytes
   Step          Temp          Press         v_N_co2     v_ads_density      PotEng         KinEng         TotEng    
     10000   303.20628     -33935.223      0              0             -13096.856      382.30753     -12714.548    
     11000   352.9848      -33864.801      59             0.003345348   -13503.876      445.07241     -13058.804    
     12000   362.09612     -33830.167      73             0.0041391594  -13618.106      456.56072     -13161.545    
     13000   359.25797     -33622.043      72             0.0040824586  -13644.109      452.98214     -13191.127    
     14000   372.04857     -33352.349      80             0.0045360651  -13692.205      469.10959     -13223.095    
     15000   376.64407     -33161.127      82             0.0046494667  -13712.287      474.90398     -13237.383    
     16000   374.82934     -33439.205      89             0.0050463724  -13760.815      472.61581     -13288.199    
     17000   376.06055     -33317.215      93             0.0052731757  -13791.202      474.16822     -13317.034    
     18000   378.74558     -33388.966      92             0.0052164749  -13796.877      477.55373     -13319.323    
     19000   388.01274     -33588.021      104            0.0058968847  -13872.341      489.23854     -13383.103    
     20000   385.41169     -33562.273      101            0.0057267822  -13879.506      485.95892     -13393.547    
     21000   384.74986     -33431.807      99             0.0056133806  -13888.292      485.12443     -13403.167    
     22000   379.52699     -33394.25       100            0.0056700814  -13893.766      478.53899     -13415.227    
     23000   384.09093     -33253.958      104            0.0058968847  -13920.367      484.2936      -13436.073    
     24000   392.77142     -33267.82       107            0.0060669871  -13950.605      495.23867     -13455.366    
     25000   388.10205     -33432.215      107            0.0060669871  -13948.177      489.35114     -13458.826    
     26000   389.2081      -33279.599      103            0.0058401838  -13936.794      490.74574     -13446.049    
     27000   388.26454     -33346.513      103            0.0058401838  -13927.277      489.55603     -13437.721    
     28000   392.52394     -33391.977      107            0.0060669871  -13949.855      494.92662     -13454.928    
     29000   388.21653     -33168.26       100            0.0056700814  -13925.576      489.49549     -13436.08     
     30000   388.2997      -33236.745      107            0.0060669871  -13965.256      489.60035     -13475.655    
     31000   391.47035     -33264.435      105            0.0059535855  -13957.574      493.59817     -13463.975    
     32000   394.64857     -33242.346      108            0.0061236879  -13987.569      497.60554     -13489.963    
     33000   394.87346     -33413.514      105            0.0059535855  -13968.275      497.8891      -13470.386    
     34000   395.16623     -33338.314      106            0.0060102863  -13968.181      498.25824     -13469.922    
     35000   403.87612     -33431.523      107            0.0060669871  -13975.499      509.24039     -13466.258    
     36000   397.44333     -33273.283      107            0.0060669871  -13978.107      501.12939     -13476.978    
     37000   395.22845     -33438.587      106            0.0060102863  -13969.509      498.3367      -13471.172    
     38000   390.06479     -33222.522      104            0.0058968847  -13958.865      491.82592     -13467.039    
     39000   391.74159     -33121.831      110            0.0062370895  -14009.034      493.94018     -13515.093    
     40000   390.89632     -33167.033      114            0.0064638928  -14021.445      492.87438     -13528.57     
     41000   391.52037     -33151.848      111            0.0062937903  -14006.059      493.66124     -13512.398    
     42000   396.39218     -33292.293      113            0.006407192   -14024.447      499.80402     -13524.643    
     43000   394.45634     -33096.226      114            0.0064638928  -14036.749      497.36316     -13539.386    
     44000   397.10031     -32919.858      109            0.0061803887  -14031.932      500.69689     -13531.236    
     45000   400.7208      -33047.705      115            0.0065205936  -14064.275      505.26191     -13559.013    
     46000   402.10295     -32977.039      111            0.0062937903  -14032.948      507.00463     -13525.943    
     47000   396.293       -33014.347      109            0.0061803887  -14021.07       499.67897     -13521.391    
     48000   388.33433     -33019.236      101            0.0057267822  -13973.955      489.64402     -13484.311    
     49000   392.2551      -33072.026      104            0.0058968847  -13984.47       494.58765     -13489.882    
     50000   405.72562     -33045.677      113            0.006407192   -14035.151      511.5724      -13523.579    
     51000   391.782       -32884.944      106            0.0060102863  -14004.414      493.99113     -13510.423    
     52000   394.73737     -32895.67       115            0.0065205936  -14041.629      497.7175      -13543.912    
     53000   388.78549     -33037.238      108            0.0061236879  -14008.928      490.21288     -13518.715    
     54000   391.79849     -32933.972      114            0.0064638928  -14053.666      494.01192     -13559.654    
     55000   394.69672     -32949.637      111            0.0062937903  -14044.127      497.66624     -13546.461    
     56000   390.66017     -32734.448      115            0.0065205936  -14064.322      492.57663     -13571.746    
     57000   388.2586      -32937.356      113            0.006407192   -14055.954      489.54854     -13566.405    
     58000   388.2757      -32922.879      109            0.0061803887  -14025.851      489.5701      -13536.281    
     59000   396.07371     -32935.888      115            0.0065205936  -14066.869      499.40247     -13567.467    
     60000   390.8682      -32766.007      111            0.0062937903  -14045.722      492.83893     -13552.883    
     61000   395.31346     -32747.538      116            0.0065772944  -14068.858      498.44388     -13570.414    
     62000   386.10175     -32777.502      114            0.0064638928  -14063.528      486.829       -13576.699    
     63000   392.07893     -32959.628      118            0.006690696   -14094.532      494.36552     -13600.166    
     64000   393.51097     -32865.295      118            0.006690696   -14086.482      496.17116     -13590.31     
     65000   384.77809     -32895.608      111            0.0062937903  -14048.488      485.16002     -13563.328    
     66000   387.44986     -33010.57       111            0.0062937903  -14056.342      488.52881     -13567.813    
     67000   392.40977     -32984.749      112            0.0063504912  -14055.085      494.78267     -13560.302    
     68000   390.02213     -32940.26       112            0.0063504912  -14053.873      491.77214     -13562.1      
     69000   394.89192     -32879.969      114            0.0064638928  -14067.626      497.91237     -13569.714    
     70000   393.93322     -32950.381      110            0.0062370895  -14054.01       496.70356     -13557.307    
     71000   396.99161     -32780.571      113            0.006407192   -14075.535      500.55983     -13574.975    
     72000   403.01563     -32725.565      116            0.0065772944  -14077.568      508.15541     -13569.412    
     73000   392.4245      -32825.135      110            0.0062370895  -14036.192      494.80125     -13541.391    
     74000   394.66203     -32690.2        110            0.0062370895  -14031.793      497.62251     -13534.171    
     75000   396.02487     -32523.017      116            0.0065772944  -14083.97       499.34089     -13584.629    
     76000   397.29955     -32448.675      116            0.0065772944  -14091.645      500.94811     -13590.697    
     77000   394.22162     -32435.909      112            0.0063504912  -14071.155      497.0672      -13574.088    
     78000   392.9171      -32509.289      109            0.0061803887  -14049.711      495.42235     -13554.289    
     79000   396.60646     -32552.853      115            0.0065205936  -14083.518      500.0742      -13583.443    
     80000   396.90057     -32677.323      116            0.0065772944  -14090.493      500.44504     -13590.048    
     81000   399.14812     -32596.776      115            0.0065205936  -14086.124      503.27894     -13582.845    
     82000   391.66031     -32416.332      108            0.0061236879  -14038.92       493.83769     -13545.082    
     83000   397.65032     -32952.395      108            0.0061236879  -14046.356      501.39039     -13544.965    
     84000   402.17552     -32989.819      113            0.006407192   -14079.451      507.09614     -13572.355    
     85000   400.69841     -32825.596      114            0.0064638928  -14080.376      505.23368     -13575.142    
     86000   397.76533     -32686.556      110            0.0062370895  -14061.708      501.5354      -13560.172    
     87000   393.2381      -32695.365      108            0.0061236879  -14062.175      495.8271      -13566.348    
     88000   397.72074     -32661.057      114            0.0064638928  -14097.448      501.47918     -13595.969    
     89000   397.47837     -32433.333      116            0.0065772944  -14118.871      501.17358     -13617.697    
     90000   397.02667     -32603.137      115            0.0065205936  -14121.306      500.60404     -13620.702    
     91000   403.06867     -32524.275      121            0.0068607985  -14156.235      508.2223      -13648.013    
     92000   394.64089     -32464.827      115            0.0065205936  -14113.852      497.59585     -13616.256    
     93000   403.91309     -32611.239      118            0.006690696   -14134.406      509.287       -13625.119    
     94000   395.73147     -32525.872      116            0.0065772944  -14125.999      498.97094     -13627.028    
     95000   396.14663     -32497.726      114            0.0064638928  -14111.928      499.49441     -13612.434    
     96000   392.63612     -32532.075      113            0.006407192   -14099.776      495.06807     -13604.708    
     97000   403.04291     -32513.501      123            0.0069742001  -14160.218      508.18981     -13652.028    
     98000   398.62447     -32556.139      120            0.0068040977  -14150.619      502.61868     -13648        
     99000   393.46541     -32649.821      115            0.0065205936  -14116.818      496.1137      -13620.705    
    100000   395.07657     -32759.456      115            0.0065205936  -14109.463      498.1452      -13611.318    
    101000   396.22466     -32684.293      119            0.0067473969  -14130.986      499.5928      -13631.393    
    102000   402.63136     -32752.75       119            0.0067473969  -14124.574      507.6709      -13616.903    
    103000   400.54032     -32743.842      114            0.0064638928  -14087.551      505.03434     -13582.517    
    104000   393.973       -32486.387      110            0.0062370895  -14068.729      496.75373     -13571.975    
    105000   395.66786     -32510.438      111            0.0062937903  -14062.666      498.89074     -13563.776    
    106000   395.79808     -32726.973      117            0.0066339952  -14113.137      499.05493     -13614.082    
    107000   395.73334     -32737.94       119            0.0067473969  -14125.744      498.9733      -13626.771    
    108000   394.02056     -32842.674      113            0.006407192   -14092.247      496.81369     -13595.434    
    109000   391.30555     -32631.288      109            0.0061803887  -14064.886      493.39038     -13571.496    
    110000   389.09109     -32400.262      106            0.0060102863  -14050.535      490.5982      -13559.936    
Loop time of 1807.37 on 20 procs for 100000 steps with 742 atoms

Performance: 4.780 ns/day, 5.020 hours/ns, 55.329 timesteps/s, 41.054 katom-step/s
100.0% CPU use with 20 MPI tasks x no OpenMP threads

MPI task timing breakdown:
Section |  min time  |  avg time  |  max time  |%varavg| %total
---------------------------------------------------------------
Pair    | 2.7205     | 7.8089     | 14.185     | 142.1 |  0.43
Bond    | 0.072246   | 0.43979    | 0.89254    |  44.3 |  0.02
Kspace  | 12.584     | 18.936     | 24.528     |  95.4 |  1.05
Neigh   | 1.1311     | 1.1594     | 1.1804     |   1.5 |  0.06
Comm    | 6.624      | 7.4469     | 7.9588     |  13.6 |  0.41
Output  | 0.085521   | 0.13085    | 0.16441    |   6.3 |  0.01
Modify  | 1770.7     | 1770.8     | 1770.8     |   0.1 | 97.98
Other   |            | 0.6558     |            |       |  0.04

Nlocal:           37.1 ave          56 max          17 min
Histogram: 2 2 2 3 1 2 0 2 4 2
Nghost:         2557.9 ave        2704 max        2364 min
Histogram: 4 4 0 0 0 0 0 1 5 6
Neighs:         8709.6 ave       13031 max        4155 min
Histogram: 2 2 2 3 1 2 0 2 4 2

Total # of neighbors = 174192
Ave neighs/atom = 234.76011
Ave special neighs/atom = 8.2533693
Neighbor list builds = 1001992
Dangerous builds = 0

# --- Завершение ---
print "GCMC simulation finished." 
GCMC simulation finished.
Total wall time: 0:30:09
