LAMMPS (29 Aug 2024 - Update 2)
# LAMMPS input script for GCMC simulation of CO2 in MOF-5

variable press equal ${p}
variable press equal 2.0

# --- Инициализация ---
units           real
atom_style      full
boundary        p p p

# --- Определение стилей потенциалов ---
# Важно: эти стили должны соответствовать формату коэффициентов в data.MOF5_charged_simple
# и добавленным коэффициентам для CO2.
pair_style      lj/cut/coul/long 12.0 # Катофф 12 Ангстрем для LJ и кулона
bond_style      harmonic
angle_style     hybrid fourier cosine/periodic harmonic # MOF-5 использует fourier и cosine/periodic, CO2 - harmonic
dihedral_style  harmonic # Предполагаем, что диэдрали в MOF-5 совместимы с harmonic (K d n)
improper_style  fourier # Предполагаем, что несобственные углы в MOF-5 совместимы с umbrella (K chi0)

# --- Чтение данных MOF-5 ---
# Добавляем 2 новых типа атомов (для C и O в CO2), 1 новый тип связи (C=O), 1 новый тип угла (O=C=O)
read_data       data.MOF5_charged_simple extra/atom/types 2 extra/bond/types 1 extra/angle/types 1
Reading data file ...
  triclinic box = (0 0 0) to (26.029363 26.031584 26.028346) with tilt (0.003152 -0.002169 0.002663)
  2 by 5 by 2 MPI processor grid
  reading atoms ...
  424 atoms
  scanning bonds ...
  4 = max bonds/atom
  scanning angles ...
  6 = max angles/atom
  scanning dihedrals ...
  8 = max dihedrals/atom
  scanning impropers ...
  3 = max impropers/atom
  triclinic box = (0 0 0) to (26.029363 26.031584 26.028346) with tilt (0.003152 -0.002169 0.002663)
  2 by 5 by 2 MPI processor grid
  reading bonds ...
  512 bonds
  reading angles ...
  912 angles
  reading dihedrals ...
  960 dihedrals
  reading impropers ...
  576 impropers
Finding 1-2 1-3 1-4 neighbors ...
  special bond factors lj:    0        0        0       
  special bond factors coul:  0        0        0       
     4 = max # of 1-2 neighbors
    12 = max # of 1-3 neighbors
    24 = max # of 1-4 neighbors
    22 = max # of special neighbors
  special bonds CPU = 0.001 seconds
  read_data CPU = 0.018 seconds

# --- Определение параметров для CO2 ---
# Массы для новых типов атомов (6: C_CO2, 7: O_CO2)
mass            6 12.011   # C in CO2
mass            7 15.9994  # O in CO2

# Pair Coeffs для CO2 (MOF-5 pair_coeffs читаются из data-файла)
# pair_coeff I J epsilon sigma
pair_coeff      6 6 0.0514 2.85    # C_CO2 - C_CO2
pair_coeff      7 7 0.1600 3.02    # O_CO2 - O_CO2

# Правила смешивания для межмолекулярных взаимодействий (например, MOF-CO2)
# Lorentz-Berthelot по умолчанию для lj/cut/coul/long
pair_modify     mix arithmetic

# Bond Coeffs для CO2 (тип связи 7)
# bond_coeff Type K r0
bond_coeff      7 1000.0 1.16   # C=O

# Angle Coeffs для CO2 (тип угла 10)
# angle_coeff Type K theta0 (для стиля harmonic)
angle_coeff     10 harmonic 100.0 180.0 # O=C=O

# --- Настройки дальнодействующих взаимодействий ---
kspace_style    pppm 1.0e-5

# --- Определение молекулы CO2 ---
molecule        co2mol CO2.txt
Read molecule template co2mol:
# CO2 molecule template for LAMMPS
  1 molecules
  0 fragments
  3 atoms with max type 7
  2 bonds with max type 7
  1 angles with max type 10
  0 dihedrals with max type 0
  0 impropers with max type 0

# --- Настройки GCMC ---
variable        T equal 323.0       # Температура в Кельвинах
variable        P equal 0.1         # Давление в атмосферах
variable        fug_coeff equal 1.0 # Коэффициент фугитивности (для идеального газа = 1.0)
variable        seed equal 12345    # Начальное число для генератора случайных чисел

# Группа для атомов CO2 (типы 6 и 7)
group           co2_atoms type 6 7
0 atoms in group co2_atoms


# Variables for analysis
variable N_co2  equal count(co2_atoms)/3
variable ads_density equal v_N_co2/vol

dump            dall all atom 100 dumps_T323K/dump_npt_${press}.lammpstrj
dump            dall all atom 100 dumps_T323K/dump_npt_2.lammpstrj

fix             mynpt all nvt temp 323.0 323.0 100.0

# Thermo output
thermo          100
thermo_style    custom step temp press vol density etotal
run             10000
PPPM initialization ...
WARNING: System is not charge neutral, net charge = 0.0008 (../kspace.cpp:327)
  using 12-bit tables for long-range coulomb (../kspace.cpp:342)
  G vector (1/distance) = 0.2438405
  grid = 16 16 16
  stencil order = 5
  estimated absolute RMS force accuracy = 0.002249822
  estimated relative force accuracy = 6.7752721e-06
  using double precision KISS FFT
  3d grid and FFT values/proc = 2250 256
Generated 21 of 21 mixed pair_coeff terms from arithmetic mixing rule
Neighbor list info ...
  update: every = 1 steps, delay = 0 steps, check = yes
  max neighbors/atom: 2000, page size: 100000
  master list distance cutoff = 14
  ghost atom cutoff = 14
  binsize = 7, bins = 4 4 4
  1 neighbor lists, perpetual/occasional/extra = 1 0 0
  (1) pair lj/cut/coul/long, perpetual
      attributes: half, newton on
      pair build: half/bin/newton/tri
      stencil: half/bin/3d/tri
      bin: standard
WARNING: Inconsistent image flags (../domain.cpp:1051)
Per MPI rank memory allocation (min/avg/max) = 13.24 | 13.45 | 13.94 Mbytes
   Step          Temp          Press          Volume        Density         TotEng    
         0   0             -31876.762      17636.431      0.57988585    -12893.244    
       100   215.81618     -30001.165      17636.431      0.57988585    -12852.782    
       200   281.55273     -36317.207      17636.431      0.57988585    -12801.14     
       300   262.60426     -30731.372      17636.431      0.57988585    -12747.62     
       400   394.40769     -40419.447      17636.431      0.57988585    -12697.432    
       500   426.81384     -35339.342      17636.431      0.57988585    -12696.734    
       600   445.68342     -31391.172      17636.431      0.57988585    -12689.675    
       700   340.06177     -25335.541      17636.431      0.57988585    -12717.188    
       800   451.84125     -28127.584      17636.431      0.57988585    -12720.132    
       900   379.29813     -31931.356      17636.431      0.57988585    -12720.725    
      1000   270.18168     -31077.301      17636.431      0.57988585    -12717.292    
      1100   339.98184     -33991.773      17636.431      0.57988585    -12696.176    
      1200   195.28269     -28892.759      17636.431      0.57988585    -12701.275    
      1300   282.99437     -33038.819      17636.431      0.57988585    -12700.492    
      1400   210.67863     -27567.06       17636.431      0.57988585    -12705.28     
      1500   282.12906     -30224.155      17636.431      0.57988585    -12714.942    
      1600   328.85229     -22078.071      17636.431      0.57988585    -12701.208    
      1700   382.91382     -35034.265      17636.431      0.57988585    -12717.371    
      1800   420.6539      -34460.1        17636.431      0.57988585    -12699.376    
      1900   418.914       -35943.285      17636.431      0.57988585    -12712.641    
      2000   380.01732     -30465.413      17636.431      0.57988585    -12705.189    
      2100   322.66364     -34064.749      17636.431      0.57988585    -12709.981    
      2200   359.36629     -31349.062      17636.431      0.57988585    -12714.465    
      2300   349.70166     -32554.359      17636.431      0.57988585    -12706.125    
      2400   257.6496      -32639.685      17636.431      0.57988585    -12728.108    
      2500   298.59265     -32249.594      17636.431      0.57988585    -12764.441    
      2600   312.23191     -37500.746      17636.431      0.57988585    -12757.061    
      2700   207.57477     -34939.896      17636.431      0.57988585    -12735.499    
      2800   310.60139     -33272.706      17636.431      0.57988585    -12705.258    
      2900   346.50855     -27451.324      17636.431      0.57988585    -12703.437    
      3000   282.44179     -36423.597      17636.431      0.57988585    -12698.516    
      3100   274.08276     -27991.942      17636.431      0.57988585    -12713.951    
      3200   262.19885     -33881.414      17636.431      0.57988585    -12735.863    
      3300   285.9436      -31264.444      17636.431      0.57988585    -12745.837    
      3400   250.26332     -36839.027      17636.431      0.57988585    -12729.452    
      3500   320.89821     -32406.504      17636.431      0.57988585    -12689.55     
      3600   286.76949     -35394.447      17636.431      0.57988585    -12701.984    
      3700   348.54134     -27216.039      17636.431      0.57988585    -12709.061    
      3800   362.91049     -32291.497      17636.431      0.57988585    -12718.519    
      3900   272.51178     -36458.802      17636.431      0.57988585    -12724.6      
      4000   317.84721     -34604.681      17636.431      0.57988585    -12718.236    
      4100   312.9391      -31051.559      17636.431      0.57988585    -12692.491    
      4200   339.83938     -33642.104      17636.431      0.57988585    -12672.498    
      4300   354.7981      -35210.029      17636.431      0.57988585    -12682.861    
      4400   259.70529     -29758.068      17636.431      0.57988585    -12712.429    
      4500   340.74322     -32471.531      17636.431      0.57988585    -12709.159    
      4600   231.27998     -32365.622      17636.431      0.57988585    -12722.965    
      4700   297.52611     -34821.24       17636.431      0.57988585    -12709.38     
      4800   308.41525     -31851.596      17636.431      0.57988585    -12714.389    
      4900   273.07485     -37177.471      17636.431      0.57988585    -12680.335    
      5000   413.73709     -30325.593      17636.431      0.57988585    -12656.254    
      5100   352.48701     -32706.645      17636.431      0.57988585    -12677.771    
      5200   403.85155     -30467.339      17636.431      0.57988585    -12702.589    
      5300   360.57713     -34303.642      17636.431      0.57988585    -12716.091    
      5400   316.05582     -31392.348      17636.431      0.57988585    -12717.545    
      5500   366.53112     -34568.185      17636.431      0.57988585    -12712.912    
      5600   341.29204     -32093.109      17636.431      0.57988585    -12694.14     
      5700   415.11301     -31573.514      17636.431      0.57988585    -12664.193    
      5800   268.87048     -32939.527      17636.431      0.57988585    -12682.871    
      5900   352.51233     -34135.107      17636.431      0.57988585    -12718.386    
      6000   319.05151     -32608.673      17636.431      0.57988585    -12718.658    
      6100   296.66595     -32907.616      17636.431      0.57988585    -12719.439    
      6200   329.00581     -35954.011      17636.431      0.57988585    -12700.748    
      6300   327.93603     -33063.934      17636.431      0.57988585    -12691.389    
      6400   300.73056     -33438.202      17636.431      0.57988585    -12675.825    
      6500   362.67132     -29683.067      17636.431      0.57988585    -12696.512    
      6600   275.88072     -35249.145      17636.431      0.57988585    -12734.319    
      6700   313.79794     -31848.612      17636.431      0.57988585    -12731.9      
      6800   304.34351     -35895.593      17636.431      0.57988585    -12719.66     
      6900   344.56141     -33906.462      17636.431      0.57988585    -12696.011    
      7000   371.45165     -34955.897      17636.431      0.57988585    -12694.358    
      7100   338.66074     -29056.755      17636.431      0.57988585    -12705.775    
      7200   381.3116      -33526.153      17636.431      0.57988585    -12706.939    
      7300   282.84647     -31702.591      17636.431      0.57988585    -12716.825    
      7400   375.52777     -33180.7        17636.431      0.57988585    -12713.397    
      7500   321.7016      -30664.132      17636.431      0.57988585    -12714.396    
      7600   294.38204     -34332.778      17636.431      0.57988585    -12707.772    
      7700   392.31678     -33630.251      17636.431      0.57988585    -12696.306    
      7800   251.7077      -34759.532      17636.431      0.57988585    -12708.713    
      7900   339.39652     -32030.443      17636.431      0.57988585    -12723.116    
      8000   299.66703     -30004.212      17636.431      0.57988585    -12751.906    
      8100   286.05985     -30819.554      17636.431      0.57988585    -12743.757    
      8200   335.50791     -31194.225      17636.431      0.57988585    -12695.228    
      8300   331.17347     -35818.493      17636.431      0.57988585    -12694.317    
      8400   357.17649     -32925.788      17636.431      0.57988585    -12703.492    
      8500   329.42909     -33606.989      17636.431      0.57988585    -12725.7      
      8600   325.01993     -30239.564      17636.431      0.57988585    -12728.001    
      8700   378.34816     -32306.347      17636.431      0.57988585    -12712.078    
      8800   319.27086     -28881.035      17636.431      0.57988585    -12666.95     
      8900   363.35742     -34527.111      17636.431      0.57988585    -12678.495    
      9000   336.07195     -31412.757      17636.431      0.57988585    -12694.557    
      9100   268.483       -35813.539      17636.431      0.57988585    -12725.163    
      9200   313.87554     -33949.081      17636.431      0.57988585    -12723.837    
      9300   282.67743     -36742.976      17636.431      0.57988585    -12719.089    
      9400   343.29497     -30924.611      17636.431      0.57988585    -12706.326    
      9500   348.47083     -31381.873      17636.431      0.57988585    -12670.665    
      9600   350.60238     -30019.565      17636.431      0.57988585    -12663.655    
      9700   343.57025     -33164.766      17636.431      0.57988585    -12688.487    
      9800   308.45472     -32787.478      17636.431      0.57988585    -12718.896    
      9900   303.90362     -36082.817      17636.431      0.57988585    -12714.978    
     10000   303.20628     -33935.223      17636.431      0.57988585    -12714.548    
Loop time of 2.47443 on 20 procs for 10000 steps with 424 atoms

Performance: 349.172 ns/day, 0.069 hours/ns, 4041.342 timesteps/s, 1.714 Matom-step/s
99.9% CPU use with 20 MPI tasks x no OpenMP threads

MPI task timing breakdown:
Section |  min time  |  avg time  |  max time  |%varavg| %total
---------------------------------------------------------------
Pair    | 0.019039   | 0.20354    | 0.51838    |  35.3 |  8.23
Bond    | 0.0058992  | 0.037128   | 0.081222   |  12.3 |  1.50
Kspace  | 1.2035     | 1.5357     | 1.7692     |  13.2 | 62.06
Neigh   | 0.023572   | 0.024248   | 0.024897   |   0.3 |  0.98
Comm    | 0.52511    | 0.58384    | 0.66424    |   5.2 | 23.59
Output  | 0.0051109  | 0.008012   | 0.010758   |   2.0 |  0.32
Modify  | 0.02181    | 0.03598    | 0.050857   |   4.4 |  1.45
Other   |            | 0.04596    |            |       |  1.86

Nlocal:           21.2 ave          39 max           1 min
Histogram: 3 3 2 0 1 3 0 0 2 6
Nghost:         1625.8 ave        1751 max        1457 min
Histogram: 8 0 0 0 0 0 0 0 4 8
Neighs:        2671.55 ave        4961 max         134 min
Histogram: 3 3 2 0 2 2 0 0 2 6

Total # of neighbors = 53431
Ave neighs/atom = 126.01651
Ave special neighs/atom = 12.943396
Neighbor list builds = 65
Dangerous builds = 0
unfix           mynpt


# Fix GCMC
# N: выполнять GCMC каждые N шагов
# Nexchange: количество попыток обмена (вставка/удаление)
# Ntranslate_rotate_mol: количество попыток трансляции/вращения молекулы
# Nrigidbody_... : 0, так как CO2 у нас гибкий
# mol co2mol: используемый шаблон молекулы
# full_energy: пересчитывать полную энергию системы (рекомендуется)
# pressure ${P}: давление (LAMMPS вычислит химический потенциал)
# displace: максимальное смещение для трансляции молекулы (в Ангстремах)
#fix             gcmc_run all gcmc 100 100 100 0 ${seed} ${T} ${P} ${fug_coeff} mol co2mol full_energy displace 0.5
fix             GCMC co2_atoms gcmc 100 1000 0 0 12345 323.0 -5.0 0.5 mol co2mol pressure ${press} full_energy group co2_atoms
fix             GCMC co2_atoms gcmc 100 1000 0 0 12345 323.0 -5.0 0.5 mol co2mol pressure 2 full_energy group co2_atoms

# --- Настройки вывода ---
#thermo_style    custom step temp press pe etotal natoms ncmc_insert ncmc_delete ncmc_trans ncmc_rotate ncmc_attempt ncmc_accept atoms_in_gcmc_mol


thermo          1000
thermo_style    custom step temp press v_N_co2 v_ads_density pe ke etotal
dump            gcmc_dump all atom 500 dumps_T323K/dump.gcmc_mof5_co2_${press}.lammpstrj
dump            gcmc_dump all atom 500 dumps_T323K/dump.gcmc_mof5_co2_2.lammpstrj

# --- Запуск симуляции ---
# Для GCMC обычно не нужен MD integrator для всей системы, если только не изучается динамика каркаса.
# Если каркас должен быть подвижен, добавьте fix nvt для атомов MOF-5.
# Например, если атомы MOF-5 должны оставаться фиксированными:
# group mof_atoms type <= 5
# fix freeze_mof mof_atoms setforce 0.0 0.0 0.0
# Однако, для GCMC лучше, чтобы каркас был термостатирован, если он не абсолютно жесткий.
# Если вы хотите просто провести GCMC без MD шагов для каркаса:
# run 0 post no # Это позволит fix gcmc работать без MD шагов
# Но обычно GCMC совмещают с MD:
timestep        1.0 # фемтосекунды (если есть MD)
run             100000 # Количество шагов GCMC/MD
WARNING: No fixes with time integration, atoms won't move (../verlet.cpp:60)
PPPM initialization ...
  using 12-bit tables for long-range coulomb (../kspace.cpp:342)
  G vector (1/distance) = 0.2438405
  grid = 16 16 16
  stencil order = 5
  estimated absolute RMS force accuracy = 0.002249822
  estimated relative force accuracy = 6.7752721e-06
  using double precision KISS FFT
  3d grid and FFT values/proc = 2250 256
Generated 21 of 21 mixed pair_coeff terms from arithmetic mixing rule
0 atoms in group FixGCMC:gcmc_exclusion_group:GCMC
0 atoms in group FixGCMC:rotation_gas_atoms:GCMC
WARNING: Neighbor exclusions used with KSpace solver may give inconsistent Coulombic energies (../neighbor.cpp:666)
WARNING: Inconsistent image flags (../domain.cpp:1051)
Per MPI rank memory allocation (min/avg/max) = 14.24 | 14.49 | 14.94 Mbytes
   Step          Temp          Press         v_N_co2     v_ads_density      PotEng         KinEng         TotEng    
     10000   303.20628     -33935.223      0              0             -13096.856      382.30753     -12714.548    
     11000   358.29921     -33471.566      74             0.0041958602  -13556.193      451.77326     -13104.42     
     12000   372.88082     -33739.287      85             0.0048195692  -13673.77       470.15895     -13203.611    
     13000   378.66261     -33679.284      95             0.0053865773  -13744.235      477.44911     -13266.786    
     14000   381.06876     -33584.406      96             0.0054432781  -13763.66       480.48299     -13283.177    
     15000   387.60713     -33225.217      104            0.0058968847  -13829.938      488.7271      -13341.211    
     16000   384.71593     -33465.924      103            0.0058401838  -13829.493      485.08164     -13344.412    
     17000   394.43703     -33333.874      108            0.0061236879  -13877.032      497.3388      -13379.694    
     18000   389.75517     -33487.793      104            0.0058968847  -13859.597      491.43553     -13368.161    
     19000   397.73215     -33211.172      116            0.0065772944  -13920.503      501.49357     -13419.009    
     20000   405.13763     -33066.629      119            0.0067473969  -13943.447      510.83101     -13432.616    
     21000   393.06808     -33027.615      106            0.0060102863  -13885.449      495.61272     -13389.836    
     22000   388.36309     -33255.65       106            0.0060102863  -13886.23       489.68029     -13396.55     
     23000   392.12713     -33246.184      112            0.0063504912  -13936.458      494.42629     -13442.032    
     24000   401.17301     -33199.312      120            0.0068040977  -13975.228      505.83209     -13469.396    
     25000   388.48288     -33121.72       106            0.0060102863  -13897.184      489.83132     -13407.353    
     26000   395.20625     -33253.493      114            0.0064638928  -13954.975      498.30871     -13456.666    
     27000   386.35386     -33089.258      114            0.0064638928  -13965.812      487.14688     -13478.665    
     28000   388.0614      -33028.066      115            0.0065205936  -13974.067      489.29988     -13484.767    
     29000   388.56308     -33033.03       111            0.0062937903  -13960.537      489.93244     -13470.605    
     30000   392.0261      -32817.591      116            0.0065772944  -13978.459      494.29891     -13484.16     
     31000   398.63859     -32824.776      118            0.006690696   -14007.684      502.63648     -13505.047    
     32000   393.09818     -32804.36       117            0.0066339952  -14003.805      495.65067     -13508.155    
     33000   394.64301     -32732.733      117            0.0066339952  -14013.856      497.59852     -13516.257    
     34000   388.86157     -32870.144      111            0.0062937903  -13982.624      490.3088      -13492.315    
     35000   401.38442     -32922.6        123            0.0069742001  -14034.55       506.09865     -13528.452    
     36000   401.17438     -32881.686      124            0.0070309009  -14053.189      505.83381     -13547.355    
     37000   398.11749     -32760.531      126            0.0071443026  -14055.931      501.97944     -13553.952    
     38000   391.32207     -32712.413      115            0.0065205936  -14004.491      493.41121     -13511.08     
     39000   400.92787     -32750.975      127            0.0072010034  -14064.672      505.523       -13559.149    
     40000   400.90439     -32595.163      127            0.0072010034  -14064.03       505.49339     -13558.536    
     41000   400.55862     -32855.738      128            0.0072577042  -14079.723      505.05742     -13574.666    
     42000   398.67927     -32927.104      124            0.0070309009  -14055.572      502.68778     -13552.884    
     43000   405.48429     -32944.056      125            0.0070876017  -14060.928      511.2681      -13549.66     
     44000   400.99759     -32519.406      124            0.0070309009  -14045.546      505.6109      -13539.935    
     45000   398.84213     -32456.304      125            0.0070876017  -14062.771      502.89312     -13559.878    
     46000   397.29058     -32295.353      128            0.0072577042  -14085.542      500.9368      -13584.605    
     47000   404.70997     -32412.59       128            0.0072577042  -14093.265      510.29178     -13582.974    
     48000   396.47439     -32498.08       123            0.0069742001  -14064.961      499.90768     -13565.053    
     49000   399.25083     -32338.24       119            0.0067473969  -14040.706      503.40845     -13537.298    
     50000   398.79632     -32403.678      121            0.0068607985  -14040.574      502.83536     -13537.739    
     51000   399.25671     -32420.207      124            0.0070309009  -14059.369      503.41586     -13555.953    
     52000   394.06916     -32394.804      120            0.0068040977  -14048.433      496.87497     -13551.558    
     53000   399.01117     -32388.748      124            0.0070309009  -14072.504      503.10626     -13569.398    
     54000   399.8784      -32259.77       124            0.0070309009  -14066.784      504.19974     -13562.585    
     55000   407.47838     -32303.307      129            0.007314405   -14106.944      513.78242     -13593.161    
     56000   412.85218     -32331.35       136            0.0077113107  -14146.725      520.55815     -13626.167    
     57000   405.21615     -32182.397      127            0.0072010034  -14092.871      510.93001     -13581.941    
     58000   403.17183     -32288.663      125            0.0070876017  -14085.149      508.35236     -13576.796    
     59000   407.96354     -32388.364      131            0.0074278066  -14129.854      514.39415     -13615.459    
     60000   408.18379     -32279.609      134            0.0075979091  -14164.916      514.67185     -13650.244    
     61000   424.34422     -32396.207      143            0.0081082164  -14211.942      535.04827     -13676.894    
     62000   412.76294     -32436.71       139            0.0078814131  -14190.899      520.44563     -13670.454    
     63000   409.47533     -32406.674      139            0.0078814131  -14198.193      516.30034     -13681.892    
     64000   405.96692     -32483.873      133            0.0075412083  -14155.984      511.87665     -13644.107    
     65000   411.787       -32266.363      135            0.0076546099  -14161.987      519.21509     -13642.772    
     66000   411.69044     -32155.748      135            0.0076546099  -14170.178      519.09333     -13651.085    
     67000   414.24398     -32339.228      140            0.007938114   -14193.369      522.31304     -13671.056    
     68000   408.61414     -32503.429      134            0.0075979091  -14163.695      515.21448     -13648.481    
     69000   413.04671     -32349.356      141            0.0079948148  -14198.804      520.80343     -13678.001    
     70000   414.19185     -32253.961      136            0.0077113107  -14192.406      522.24732     -13670.159    
     71000   412.30668     -32277.347      136            0.0077113107  -14179.033      519.87034     -13659.162    
     72000   414.49553     -32222.682      135            0.0076546099  -14164.559      522.63023     -13641.929    
     73000   412.29877     -32324.177      132            0.0074845074  -14148.68       519.86037     -13628.82     
     74000   406.56134     -32328.005      131            0.0074278066  -14138.091      512.62614     -13625.465    
     75000   408.79029     -32236.937      135            0.0076546099  -14176.466      515.43658     -13661.029    
     76000   408.3042      -32355.219      138            0.0078247123  -14189.305      514.82368     -13674.481    
     77000   408.13245     -32333.308      138            0.0078247123  -14188.4        514.60712     -13673.793    
     78000   406.07552     -32395.28       135            0.0076546099  -14181.41       512.01358     -13669.397    
     79000   411.58826     -32231.245      136            0.0077113107  -14177.984      518.9645      -13659.02     
     80000   406.90616     -32199.939      136            0.0077113107  -14182.064      513.06092     -13669.003    
     81000   407.15142     -32144.382      137            0.0077680115  -14187.838      513.37016     -13674.468    
     82000   405.65227     -32033.452      135            0.0076546099  -14158.82       511.47991     -13647.34     
     83000   405.13771     -32302.876      132            0.0074845074  -14148.172      510.8311      -13637.341    
     84000   406.50027     -32311.537      131            0.0074278066  -14149.871      512.54914     -13637.322    
     85000   404.64964     -32208.769      128            0.0072577042  -14134.21       510.21571     -13623.994    
     86000   407.41247     -32246.994      134            0.0075979091  -14158.726      513.69931     -13645.027    
     87000   413.74685     -31936.031      140            0.007938114   -14187.974      521.68622     -13666.287    
     88000   416.78101     -32041.25       136            0.0077113107  -14164.56       525.51195     -13639.048    
     89000   414.56535     -31882.354      138            0.0078247123  -14190.815      522.71825     -13668.097    
     90000   416.94587     -32128.835      143            0.0081082164  -14220.293      525.71981     -13694.573    
     91000   417.01472     -31879.171      143            0.0081082164  -14226.198      525.80663     -13700.391    
     92000   413.32875     -31887.971      141            0.0079948148  -14207.648      521.15905     -13686.489    
     93000   418.18169     -32129.89       139            0.0078814131  -14194.517      527.27803     -13667.239    
     94000   415.66692     -32065.703      139            0.0078814131  -14190.688      524.10721     -13666.581    
     95000   409.80125     -32239.886      134            0.0075979091  -14161.864      516.71129     -13645.152    
     96000   418.6526      -32009.609      139            0.0078814131  -14178.818      527.8718      -13650.946    
     97000   411.10406     -31939.748      137            0.0077680115  -14164.633      518.35397     -13646.279    
     98000   406.67474     -32075.752      130            0.0073711058  -14135.21       512.76912     -13622.441    
     99000   408.38752     -32041.487      134            0.0075979091  -14152.671      514.92874     -13637.742    
    100000   417.34135     -31905.07       134            0.0075979091  -14145.724      526.21846     -13619.505    
    101000   416.84819     -31930.925      142            0.0080515156  -14203.358      525.59665     -13677.761    
    102000   416.30952     -31776.419      139            0.0078814131  -14205.194      524.91746     -13680.276    
    103000   419.4258      -31949.866      150            0.0085051221  -14269.097      528.84672     -13740.25     
    104000   415.04536     -31760.547      141            0.0079948148  -14215.19       523.3235      -13691.866    
    105000   410.15744     -31836.961      137            0.0077680115  -14176.558      517.1604      -13659.398    
    106000   404.71453     -31927.746      130            0.0073711058  -14145.464      510.29753     -13635.167    
    107000   400.19187     -31362.216      123            0.0069742001  -14105.836      504.59499     -13601.241    
    108000   405.18305     -31776.084      127            0.0072010034  -14129.683      510.88828     -13618.795    
    109000   409.43597     -31634.111      135            0.0076546099  -14183.631      516.25071     -13667.38     
    110000   410.64126     -31458.942      139            0.0078814131  -14211.759      517.77044     -13693.989    
Loop time of 2005.02 on 20 procs for 100000 steps with 841 atoms

Performance: 4.309 ns/day, 5.570 hours/ns, 49.875 timesteps/s, 41.945 katom-step/s
100.0% CPU use with 20 MPI tasks x no OpenMP threads

MPI task timing breakdown:
Section |  min time  |  avg time  |  max time  |%varavg| %total
---------------------------------------------------------------
Pair    | 3.9081     | 8.4912     | 16.232     | 116.7 |  0.42
Bond    | 0.081987   | 0.40862    | 0.8489     |  34.4 |  0.02
Kspace  | 12.849     | 20.793     | 24.934     |  75.8 |  1.04
Neigh   | 1.2671     | 1.2886     | 1.3268     |   1.5 |  0.06
Comm    | 7.9155     | 8.5382     | 9.3377     |  11.3 |  0.43
Output  | 0.087572   | 0.14041    | 0.17429    |   6.5 |  0.01
Modify  | 1964.7     | 1964.7     | 1964.8     |   0.1 | 97.99
Other   |            | 0.6201     |            |       |  0.03

Nlocal:          42.05 ave          62 max          24 min
Histogram: 3 3 1 2 1 1 3 4 0 2
Nghost:        2861.65 ave        2975 max        2670 min
Histogram: 2 2 2 1 1 0 0 0 6 6
Neighs:        11329.4 ave       16754 max        6503 min
Histogram: 4 2 1 1 2 1 3 4 0 2

Total # of neighbors = 226587
Ave neighs/atom = 269.42568
Ave special neighs/atom = 7.5172414
Neighbor list builds = 1001992
Dangerous builds = 0

# --- Завершение ---
print "GCMC simulation finished." 
GCMC simulation finished.
Total wall time: 0:33:27
