LAMMPS (29 Aug 2024 - Update 2)
# LAMMPS input script for GCMC simulation of CO2 in MOF-5

variable press equal ${p}
variable press equal 0.5

# --- Инициализация ---
units           real
atom_style      full
boundary        p p p

# --- Определение стилей потенциалов ---
# Важно: эти стили должны соответствовать формату коэффициентов в data.MOF5_charged_simple
# и добавленным коэффициентам для CO2.
pair_style      lj/cut/coul/long 12.0 # Катофф 12 Ангстрем для LJ и кулона
bond_style      harmonic
angle_style     hybrid fourier cosine/periodic harmonic # MOF-5 использует fourier и cosine/periodic, CO2 - harmonic
dihedral_style  harmonic # Предполагаем, что диэдрали в MOF-5 совместимы с harmonic (K d n)
improper_style  fourier # Предполагаем, что несобственные углы в MOF-5 совместимы с umbrella (K chi0)

# --- Чтение данных MOF-5 ---
# Добавляем 2 новых типа атомов (для C и O в CO2), 1 новый тип связи (C=O), 1 новый тип угла (O=C=O)
read_data       data.MOF5_charged_simple extra/atom/types 2 extra/bond/types 1 extra/angle/types 1
Reading data file ...
  triclinic box = (0 0 0) to (26.029363 26.031584 26.028346) with tilt (0.003152 -0.002169 0.002663)
  2 by 5 by 2 MPI processor grid
  reading atoms ...
  424 atoms
  scanning bonds ...
  4 = max bonds/atom
  scanning angles ...
  6 = max angles/atom
  scanning dihedrals ...
  8 = max dihedrals/atom
  scanning impropers ...
  3 = max impropers/atom
  triclinic box = (0 0 0) to (26.029363 26.031584 26.028346) with tilt (0.003152 -0.002169 0.002663)
  2 by 5 by 2 MPI processor grid
  reading bonds ...
  512 bonds
  reading angles ...
  912 angles
  reading dihedrals ...
  960 dihedrals
  reading impropers ...
  576 impropers
Finding 1-2 1-3 1-4 neighbors ...
  special bond factors lj:    0        0        0       
  special bond factors coul:  0        0        0       
     4 = max # of 1-2 neighbors
    12 = max # of 1-3 neighbors
    24 = max # of 1-4 neighbors
    22 = max # of special neighbors
  special bonds CPU = 0.001 seconds
  read_data CPU = 0.017 seconds

# --- Определение параметров для CO2 ---
# Массы для новых типов атомов (6: C_CO2, 7: O_CO2)
mass            6 12.011   # C in CO2
mass            7 15.9994  # O in CO2

# Pair Coeffs для CO2 (MOF-5 pair_coeffs читаются из data-файла)
# pair_coeff I J epsilon sigma
pair_coeff      6 6 0.0514 2.85    # C_CO2 - C_CO2
pair_coeff      7 7 0.1600 3.02    # O_CO2 - O_CO2

# Правила смешивания для межмолекулярных взаимодействий (например, MOF-CO2)
# Lorentz-Berthelot по умолчанию для lj/cut/coul/long
pair_modify     mix arithmetic

# Bond Coeffs для CO2 (тип связи 7)
# bond_coeff Type K r0
bond_coeff      7 1000.0 1.16   # C=O

# Angle Coeffs для CO2 (тип угла 10)
# angle_coeff Type K theta0 (для стиля harmonic)
angle_coeff     10 harmonic 100.0 180.0 # O=C=O

# --- Настройки дальнодействующих взаимодействий ---
kspace_style    pppm 1.0e-5

# --- Определение молекулы CO2 ---
molecule        co2mol CO2.txt
Read molecule template co2mol:
# CO2 molecule template for LAMMPS
  1 molecules
  0 fragments
  3 atoms with max type 7
  2 bonds with max type 7
  1 angles with max type 10
  0 dihedrals with max type 0
  0 impropers with max type 0

# --- Настройки GCMC ---
variable        T equal 323.0       # Температура в Кельвинах
variable        P equal 0.1         # Давление в атмосферах
variable        fug_coeff equal 1.0 # Коэффициент фугитивности (для идеального газа = 1.0)
variable        seed equal 12345    # Начальное число для генератора случайных чисел

# Группа для атомов CO2 (типы 6 и 7)
group           co2_atoms type 6 7
0 atoms in group co2_atoms


# Variables for analysis
variable N_co2  equal count(co2_atoms)/3
variable ads_density equal v_N_co2/vol

dump            dall all atom 100 dumps_T323K/dump_npt_${press}.lammpstrj
dump            dall all atom 100 dumps_T323K/dump_npt_0.5.lammpstrj

fix             mynpt all nvt temp 323.0 323.0 100.0

# Thermo output
thermo          100
thermo_style    custom step temp press vol density etotal
run             10000
PPPM initialization ...
WARNING: System is not charge neutral, net charge = 0.0008 (../kspace.cpp:327)
  using 12-bit tables for long-range coulomb (../kspace.cpp:342)
  G vector (1/distance) = 0.2438405
  grid = 16 16 16
  stencil order = 5
  estimated absolute RMS force accuracy = 0.002249822
  estimated relative force accuracy = 6.7752721e-06
  using double precision KISS FFT
  3d grid and FFT values/proc = 2250 256
Generated 21 of 21 mixed pair_coeff terms from arithmetic mixing rule
Neighbor list info ...
  update: every = 1 steps, delay = 0 steps, check = yes
  max neighbors/atom: 2000, page size: 100000
  master list distance cutoff = 14
  ghost atom cutoff = 14
  binsize = 7, bins = 4 4 4
  1 neighbor lists, perpetual/occasional/extra = 1 0 0
  (1) pair lj/cut/coul/long, perpetual
      attributes: half, newton on
      pair build: half/bin/newton/tri
      stencil: half/bin/3d/tri
      bin: standard
WARNING: Inconsistent image flags (../domain.cpp:1051)
Per MPI rank memory allocation (min/avg/max) = 13.24 | 13.45 | 13.94 Mbytes
   Step          Temp          Press          Volume        Density         TotEng    
         0   0             -31876.762      17636.431      0.57988585    -12893.244    
       100   215.81618     -30001.165      17636.431      0.57988585    -12852.782    
       200   281.55273     -36317.207      17636.431      0.57988585    -12801.14     
       300   262.60426     -30731.372      17636.431      0.57988585    -12747.62     
       400   394.40769     -40419.447      17636.431      0.57988585    -12697.432    
       500   426.81384     -35339.342      17636.431      0.57988585    -12696.734    
       600   445.68342     -31391.172      17636.431      0.57988585    -12689.675    
       700   340.06177     -25335.541      17636.431      0.57988585    -12717.188    
       800   451.84125     -28127.584      17636.431      0.57988585    -12720.132    
       900   379.29813     -31931.356      17636.431      0.57988585    -12720.725    
      1000   270.18168     -31077.301      17636.431      0.57988585    -12717.292    
      1100   339.98184     -33991.773      17636.431      0.57988585    -12696.176    
      1200   195.28269     -28892.759      17636.431      0.57988585    -12701.275    
      1300   282.99437     -33038.819      17636.431      0.57988585    -12700.492    
      1400   210.67863     -27567.06       17636.431      0.57988585    -12705.28     
      1500   282.12906     -30224.155      17636.431      0.57988585    -12714.942    
      1600   328.85229     -22078.071      17636.431      0.57988585    -12701.208    
      1700   382.91382     -35034.265      17636.431      0.57988585    -12717.371    
      1800   420.6539      -34460.1        17636.431      0.57988585    -12699.376    
      1900   418.914       -35943.285      17636.431      0.57988585    -12712.641    
      2000   380.01732     -30465.413      17636.431      0.57988585    -12705.189    
      2100   322.66364     -34064.749      17636.431      0.57988585    -12709.981    
      2200   359.36629     -31349.062      17636.431      0.57988585    -12714.465    
      2300   349.70166     -32554.359      17636.431      0.57988585    -12706.125    
      2400   257.6496      -32639.685      17636.431      0.57988585    -12728.108    
      2500   298.59265     -32249.594      17636.431      0.57988585    -12764.441    
      2600   312.23191     -37500.746      17636.431      0.57988585    -12757.061    
      2700   207.57477     -34939.896      17636.431      0.57988585    -12735.499    
      2800   310.60139     -33272.706      17636.431      0.57988585    -12705.258    
      2900   346.50855     -27451.324      17636.431      0.57988585    -12703.437    
      3000   282.44179     -36423.597      17636.431      0.57988585    -12698.516    
      3100   274.08276     -27991.942      17636.431      0.57988585    -12713.951    
      3200   262.19885     -33881.414      17636.431      0.57988585    -12735.863    
      3300   285.9436      -31264.444      17636.431      0.57988585    -12745.837    
      3400   250.26332     -36839.027      17636.431      0.57988585    -12729.452    
      3500   320.89821     -32406.504      17636.431      0.57988585    -12689.55     
      3600   286.76949     -35394.447      17636.431      0.57988585    -12701.984    
      3700   348.54134     -27216.039      17636.431      0.57988585    -12709.061    
      3800   362.91049     -32291.497      17636.431      0.57988585    -12718.519    
      3900   272.51178     -36458.802      17636.431      0.57988585    -12724.6      
      4000   317.84721     -34604.681      17636.431      0.57988585    -12718.236    
      4100   312.9391      -31051.559      17636.431      0.57988585    -12692.491    
      4200   339.83938     -33642.104      17636.431      0.57988585    -12672.498    
      4300   354.7981      -35210.029      17636.431      0.57988585    -12682.861    
      4400   259.70529     -29758.068      17636.431      0.57988585    -12712.429    
      4500   340.74322     -32471.531      17636.431      0.57988585    -12709.159    
      4600   231.27998     -32365.622      17636.431      0.57988585    -12722.965    
      4700   297.52611     -34821.24       17636.431      0.57988585    -12709.38     
      4800   308.41525     -31851.596      17636.431      0.57988585    -12714.389    
      4900   273.07485     -37177.471      17636.431      0.57988585    -12680.335    
      5000   413.73709     -30325.593      17636.431      0.57988585    -12656.254    
      5100   352.48701     -32706.645      17636.431      0.57988585    -12677.771    
      5200   403.85155     -30467.339      17636.431      0.57988585    -12702.589    
      5300   360.57713     -34303.642      17636.431      0.57988585    -12716.091    
      5400   316.05582     -31392.348      17636.431      0.57988585    -12717.545    
      5500   366.53112     -34568.185      17636.431      0.57988585    -12712.912    
      5600   341.29204     -32093.109      17636.431      0.57988585    -12694.14     
      5700   415.11301     -31573.514      17636.431      0.57988585    -12664.193    
      5800   268.87048     -32939.527      17636.431      0.57988585    -12682.871    
      5900   352.51233     -34135.107      17636.431      0.57988585    -12718.386    
      6000   319.05151     -32608.673      17636.431      0.57988585    -12718.658    
      6100   296.66595     -32907.616      17636.431      0.57988585    -12719.439    
      6200   329.00581     -35954.011      17636.431      0.57988585    -12700.748    
      6300   327.93603     -33063.934      17636.431      0.57988585    -12691.389    
      6400   300.73056     -33438.202      17636.431      0.57988585    -12675.825    
      6500   362.67132     -29683.067      17636.431      0.57988585    -12696.512    
      6600   275.88072     -35249.145      17636.431      0.57988585    -12734.319    
      6700   313.79794     -31848.612      17636.431      0.57988585    -12731.9      
      6800   304.34351     -35895.593      17636.431      0.57988585    -12719.66     
      6900   344.56141     -33906.462      17636.431      0.57988585    -12696.011    
      7000   371.45165     -34955.897      17636.431      0.57988585    -12694.358    
      7100   338.66074     -29056.755      17636.431      0.57988585    -12705.775    
      7200   381.3116      -33526.153      17636.431      0.57988585    -12706.939    
      7300   282.84647     -31702.591      17636.431      0.57988585    -12716.825    
      7400   375.52777     -33180.7        17636.431      0.57988585    -12713.397    
      7500   321.7016      -30664.132      17636.431      0.57988585    -12714.396    
      7600   294.38204     -34332.778      17636.431      0.57988585    -12707.772    
      7700   392.31678     -33630.251      17636.431      0.57988585    -12696.306    
      7800   251.7077      -34759.532      17636.431      0.57988585    -12708.713    
      7900   339.39652     -32030.443      17636.431      0.57988585    -12723.116    
      8000   299.66703     -30004.212      17636.431      0.57988585    -12751.906    
      8100   286.05985     -30819.554      17636.431      0.57988585    -12743.757    
      8200   335.50791     -31194.225      17636.431      0.57988585    -12695.228    
      8300   331.17347     -35818.493      17636.431      0.57988585    -12694.317    
      8400   357.17649     -32925.788      17636.431      0.57988585    -12703.492    
      8500   329.42909     -33606.989      17636.431      0.57988585    -12725.7      
      8600   325.01993     -30239.564      17636.431      0.57988585    -12728.001    
      8700   378.34816     -32306.347      17636.431      0.57988585    -12712.078    
      8800   319.27086     -28881.035      17636.431      0.57988585    -12666.95     
      8900   363.35742     -34527.111      17636.431      0.57988585    -12678.495    
      9000   336.07195     -31412.757      17636.431      0.57988585    -12694.557    
      9100   268.483       -35813.539      17636.431      0.57988585    -12725.163    
      9200   313.87554     -33949.081      17636.431      0.57988585    -12723.837    
      9300   282.67743     -36742.976      17636.431      0.57988585    -12719.089    
      9400   343.29497     -30924.611      17636.431      0.57988585    -12706.326    
      9500   348.47083     -31381.873      17636.431      0.57988585    -12670.665    
      9600   350.60238     -30019.565      17636.431      0.57988585    -12663.655    
      9700   343.57025     -33164.766      17636.431      0.57988585    -12688.487    
      9800   308.45472     -32787.478      17636.431      0.57988585    -12718.896    
      9900   303.90362     -36082.817      17636.431      0.57988585    -12714.978    
     10000   303.20628     -33935.223      17636.431      0.57988585    -12714.548    
Loop time of 2.1479 on 20 procs for 10000 steps with 424 atoms

Performance: 402.253 ns/day, 0.060 hours/ns, 4655.708 timesteps/s, 1.974 Matom-step/s
99.9% CPU use with 20 MPI tasks x no OpenMP threads

MPI task timing breakdown:
Section |  min time  |  avg time  |  max time  |%varavg| %total
---------------------------------------------------------------
Pair    | 0.018614   | 0.20593    | 0.46911    |  34.2 |  9.59
Bond    | 0.0056607  | 0.037565   | 0.077915   |  12.4 |  1.75
Kspace  | 1.0343     | 1.3096     | 1.5037     |  14.1 | 60.97
Neigh   | 0.022107   | 0.022967   | 0.023894   |   0.4 |  1.07
Comm    | 0.43946    | 0.47468    | 0.50943    |   2.7 | 22.10
Output  | 0.0051673  | 0.0078728  | 0.010602   |   1.9 |  0.37
Modify  | 0.021002   | 0.045427   | 0.064938   |   7.1 |  2.11
Other   |            | 0.04384    |            |       |  2.04

Nlocal:           21.2 ave          39 max           1 min
Histogram: 3 3 2 0 1 3 0 0 2 6
Nghost:         1625.8 ave        1751 max        1457 min
Histogram: 8 0 0 0 0 0 0 0 4 8
Neighs:        2671.55 ave        4961 max         134 min
Histogram: 3 3 2 0 2 2 0 0 2 6

Total # of neighbors = 53431
Ave neighs/atom = 126.01651
Ave special neighs/atom = 12.943396
Neighbor list builds = 65
Dangerous builds = 0
unfix           mynpt


# Fix GCMC
# N: выполнять GCMC каждые N шагов
# Nexchange: количество попыток обмена (вставка/удаление)
# Ntranslate_rotate_mol: количество попыток трансляции/вращения молекулы
# Nrigidbody_... : 0, так как CO2 у нас гибкий
# mol co2mol: используемый шаблон молекулы
# full_energy: пересчитывать полную энергию системы (рекомендуется)
# pressure ${P}: давление (LAMMPS вычислит химический потенциал)
# displace: максимальное смещение для трансляции молекулы (в Ангстремах)
#fix             gcmc_run all gcmc 100 100 100 0 ${seed} ${T} ${P} ${fug_coeff} mol co2mol full_energy displace 0.5
fix             GCMC co2_atoms gcmc 100 1000 0 0 12345 323.0 -5.0 0.5 mol co2mol pressure ${press} full_energy group co2_atoms
fix             GCMC co2_atoms gcmc 100 1000 0 0 12345 323.0 -5.0 0.5 mol co2mol pressure 0.5 full_energy group co2_atoms

# --- Настройки вывода ---
#thermo_style    custom step temp press pe etotal natoms ncmc_insert ncmc_delete ncmc_trans ncmc_rotate ncmc_attempt ncmc_accept atoms_in_gcmc_mol


thermo          1000
thermo_style    custom step temp press v_N_co2 v_ads_density pe ke etotal
dump            gcmc_dump all atom 500 dumps_T323K/dump.gcmc_mof5_co2_${press}.lammpstrj
dump            gcmc_dump all atom 500 dumps_T323K/dump.gcmc_mof5_co2_0.5.lammpstrj

# --- Запуск симуляции ---
# Для GCMC обычно не нужен MD integrator для всей системы, если только не изучается динамика каркаса.
# Если каркас должен быть подвижен, добавьте fix nvt для атомов MOF-5.
# Например, если атомы MOF-5 должны оставаться фиксированными:
# group mof_atoms type <= 5
# fix freeze_mof mof_atoms setforce 0.0 0.0 0.0
# Однако, для GCMC лучше, чтобы каркас был термостатирован, если он не абсолютно жесткий.
# Если вы хотите просто провести GCMC без MD шагов для каркаса:
# run 0 post no # Это позволит fix gcmc работать без MD шагов
# Но обычно GCMC совмещают с MD:
timestep        1.0 # фемтосекунды (если есть MD)
run             100000 # Количество шагов GCMC/MD
WARNING: No fixes with time integration, atoms won't move (../verlet.cpp:60)
PPPM initialization ...
  using 12-bit tables for long-range coulomb (../kspace.cpp:342)
  G vector (1/distance) = 0.2438405
  grid = 16 16 16
  stencil order = 5
  estimated absolute RMS force accuracy = 0.002249822
  estimated relative force accuracy = 6.7752721e-06
  using double precision KISS FFT
  3d grid and FFT values/proc = 2250 256
Generated 21 of 21 mixed pair_coeff terms from arithmetic mixing rule
0 atoms in group FixGCMC:gcmc_exclusion_group:GCMC
0 atoms in group FixGCMC:rotation_gas_atoms:GCMC
WARNING: Neighbor exclusions used with KSpace solver may give inconsistent Coulombic energies (../neighbor.cpp:666)
WARNING: Inconsistent image flags (../domain.cpp:1051)
Per MPI rank memory allocation (min/avg/max) = 14.24 | 14.49 | 14.94 Mbytes
   Step          Temp          Press         v_N_co2     v_ads_density      PotEng         KinEng         TotEng    
     10000   303.20628     -33935.223      0              0             -13096.856      382.30753     -12714.548    
     11000   347.77359     -33737.623      55             0.0031185448  -13491.085      438.50169     -13052.583    
     12000   356.24462     -33658.028      61             0.0034587497  -13566.236      449.18267     -13117.053    
     13000   359.9426      -33537.742      69             0.0039123562  -13625.989      453.84538     -13172.143    
     14000   359.10849     -33246.13       70             0.003969057   -13627.559      452.79366     -13174.765    
     15000   369.09605     -33047.196      76             0.0043092619  -13689.558      465.38681     -13224.172    
     16000   373.61209     -33108.687      81             0.0045927659  -13714.921      471.081       -13243.84     
     17000   371.70118     -33050.736      82             0.0046494667  -13752.631      468.67157     -13283.959    
     18000   375.79974     -32942.557      88             0.0049896716  -13789.666      473.83938     -13315.827    
     19000   367.87271     -32831.995      86             0.00487627    -13782.269      463.84432     -13318.425    
     20000   368.02269     -32925.675      86             0.00487627    -13778.189      464.03342     -13314.156    
     21000   373.40264     -32856.647      83             0.0047061676  -13787.863      470.81691     -13317.046    
     22000   375.93723     -33004.97       87             0.0049329708  -13800.954      474.01273     -13326.941    
     23000   374.62064     -32996.923      85             0.0048195692  -13795.342      472.35266     -13322.989    
     24000   383.03462     -32563.483      91             0.0051597741  -13839.273      482.9617      -13356.311    
     25000   383.69136     -32545.546      88             0.0049896716  -13824.801      483.78978     -13341.011    
     26000   383.06111     -32675.362      89             0.0050463724  -13830.417      482.99511     -13347.422    
     27000   386.8207      -32497.889      92             0.0052164749  -13857.712      487.73551     -13369.977    
     28000   390.83525     -32792.009      96             0.0054432781  -13893.366      492.79739     -13400.569    
     29000   384.86365     -32682.437      90             0.0051030733  -13862.416      485.2679      -13377.148    
     30000   386.42015     -32811.422      97             0.005499979   -13891.493      487.23046     -13404.262    
     31000   380.31262     -32705.832      87             0.0049329708  -13858.103      479.52959     -13378.574    
     32000   389.89911     -32445.297      100            0.0056700814  -13944.339      491.61703     -13452.722    
     33000   391.9294      -32316.671      101            0.0057267822  -13963.043      494.17698     -13468.866    
     34000   379.95133     -32457.166      92             0.0052164749  -13909.196      479.07404     -13430.122    
     35000   391.41201     -32561.404      102            0.005783483   -13956.961      493.52462     -13463.437    
     36000   385.97388     -32550.613      99             0.0056133806  -13943.973      486.66777     -13457.306    
     37000   387.47969     -32355.962      102            0.005783483   -13972.707      488.56642     -13484.141    
     38000   385.95025     -32408.482      100            0.0056700814  -13947.796      486.63797     -13461.158    
     39000   385.04131     -32486.712      101            0.0057267822  -13979.345      485.49191     -13493.853    
     40000   383.75171     -32660.444      99             0.0056133806  -13971.749      483.86587     -13487.883    
     41000   384.87473     -32524.621      98             0.0055566798  -13967.816      485.28187     -13482.534    
     42000   381.86217     -32532.757      98             0.0055566798  -13961.689      481.48338     -13480.206    
     43000   382.62588     -32545.745      95             0.0053865773  -13941.919      482.44633     -13459.472    
     44000   389.1009      -32211.195      101            0.0057267822  -13979.135      490.61057     -13488.525    
     45000   384.49454     -32343.13       101            0.0057267822  -13984.385      484.8025      -13499.583    
     46000   382.39058     -32553.93       97             0.005499979   -13953.643      482.14964     -13471.493    
     47000   382.46027     -32583.983      98             0.0055566798  -13960.548      482.23752     -13478.31     
     48000   384.12983     -32334.404      96             0.0054432781  -13952.246      484.34263     -13467.903    
     49000   382.87407     -32325.282      96             0.0054432781  -13950.512      482.75927     -13467.753    
     50000   389.80256     -32118.747      104            0.0058968847  -13997.134      491.49528     -13505.639    
     51000   386.06198     -32266.141      100            0.0056700814  -13994.447      486.77885     -13507.668    
     52000   378.98016     -32260.393      98             0.0055566798  -13983.53       477.84951     -13505.68     
     53000   378.84785     -32273.626      100            0.0056700814  -14005.162      477.68268     -13527.479    
     54000   383.0827      -32153.723      106            0.0060102863  -14039.489      483.02233     -13556.467    
     55000   377.96393     -32219.368      99             0.0056133806  -13997.17       476.56816     -13520.602    
     56000   377.72368     -32300.772      103            0.0058401838  -14023.115      476.26524     -13546.849    
     57000   378.01648     -32320.291      103            0.0058401838  -14019.412      476.63442     -13542.778    
     58000   385.91097     -32640.066      103            0.0058401838  -14025.397      486.58845     -13538.808    
     59000   385.51031     -32245.309      103            0.0058401838  -14039.296      486.08326     -13553.213    
     60000   388.68209     -32062.042      105            0.0059535855  -14061.603      490.0825      -13571.52     
     61000   398.54879     -32129.355      119            0.0067473969  -14145.649      502.52325     -13643.126    
     62000   381.52402     -32072.14       104            0.0058968847  -14043.578      481.05701     -13562.521    
     63000   382.86159     -32311.823      107            0.0060669871  -14064.553      482.74353     -13581.809    
     64000   388.55274     -32275.207      108            0.0061236879  -14076.152      489.9194      -13586.233    
     65000   390.99621     -32328.529      107            0.0060669871  -14073.009      493.00033     -13580.009    
     66000   390.0981      -32377.454      109            0.0061803887  -14080.868      491.86792     -13589        
     67000   390.34368     -32230.197      110            0.0062370895  -14080.517      492.17757     -13588.339    
     68000   387.12956     -32346.13       104            0.0058968847  -14044.297      488.12495     -13556.172    
     69000   388.08993     -32339.009      106            0.0060102863  -14067.184      489.33586     -13577.848    
     70000   387.88776     -32338.763      107            0.0060669871  -14075.117      489.08095     -13586.036    
     71000   389.66823     -32430.026      110            0.0062370895  -14086.565      491.32591     -13595.239    
     72000   388.23065     -32184.898      107            0.0060669871  -14062.087      489.5133      -13572.573    
     73000   393.61768     -32317.225      114            0.0064638928  -14106.627      496.30571     -13610.321    
     74000   388.4868      -32421.219      106            0.0060102863  -14058.958      489.83627     -13569.121    
     75000   396.23423     -32450.497      112            0.0063504912  -14101.022      499.60487     -13601.417    
     76000   387.02732     -32611.386      108            0.0061236879  -14080.673      487.99604     -13592.676    
     77000   385.48702     -32601.099      106            0.0060102863  -14072.613      486.05389     -13586.559    
     78000   392.71959     -32461.141      109            0.0061803887  -14091.528      495.17332     -13596.354    
     79000   386.82162     -32569.333      106            0.0060102863  -14069.368      487.73668     -13581.632    
     80000   387.7799      -32576.612      111            0.0062937903  -14104.459      488.94494     -13615.514    
     81000   386.06094     -32599.146      108            0.0061236879  -14081.061      486.77754     -13594.283    
     82000   387.06036     -32498.288      107            0.0060669871  -14066.713      488.0377      -13578.675    
     83000   383.73807     -32443.561      106            0.0060102863  -14056.434      483.84868     -13572.585    
     84000   383.94197     -32508.793      103            0.0058401838  -14049.908      484.10576     -13565.803    
     85000   388.47822     -32316.439      109            0.0061803887  -14078.969      489.82544     -13589.143    
     86000   385.6525      -32280.989      109            0.0061803887  -14083.932      486.26254     -13597.669    
     87000   389.08814     -32033.456      109            0.0061803887  -14092.72       490.59449     -13602.126    
     88000   394.36656     -32145.633      115            0.0065205936  -14128.734      497.24995     -13631.484    
     89000   393.74858     -32294.498      114            0.0064638928  -14129.234      496.47076     -13632.764    
     90000   392.30255     -32140.835      110            0.0062370895  -14099.384      494.64748     -13604.736    
     91000   395.1638      -32127.197      115            0.0065205936  -14133.242      498.25518     -13634.986    
     92000   392.67838     -32212.63       112            0.0063504912  -14104.149      495.12136     -13609.028    
     93000   395.55221     -32234.001      120            0.0068040977  -14160.223      498.74492     -13661.478    
     94000   391.50767     -32293.9        113            0.006407192   -14122.443      493.64523     -13628.798    
     95000   393.16279     -32158.133      114            0.0064638928  -14117.747      495.73214     -13622.015    
     96000   394.87622     -32139.33       113            0.006407192   -14120.889      497.89257     -13622.997    
     97000   386.66784     -32091.512      112            0.0063504912  -14107.243      487.54277     -13619.701    
     98000   385.82058     -32145.716      108            0.0061236879  -14088.988      486.47448     -13602.514    
     99000   387.55721     -32204.237      110            0.0062370895  -14104.316      488.66416     -13615.652    
    100000   381.72639     -32255.131      103            0.0058401838  -14061.396      481.31218     -13580.084    
    101000   389.8886      -32346.882      110            0.0062370895  -14094.704      491.60377     -13603.1      
    102000   381.5535      -32231.166      105            0.0059535855  -14074.436      481.09419     -13593.342    
    103000   393.48473     -32217.861      116            0.0065772944  -14133.892      496.13807     -13637.754    
    104000   390.59642     -32154.993      111            0.0062937903  -14104.852      492.49625     -13612.356    
    105000   383.22299     -32219.763      108            0.0061236879  -14081.736      483.19922     -13598.537    
    106000   389.14445     -32104.856      110            0.0062370895  -14088.442      490.66549     -13597.777    
    107000   386.76742     -32117.917      108            0.0061236879  -14078.731      487.66833     -13591.062    
    108000   385.3205      -32080.802      106            0.0060102863  -14062.586      485.84394     -13576.742    
    109000   385.31286     -32164.26       104            0.0058968847  -14047.997      485.8343      -13562.163    
    110000   390.28277     -32194.545      106            0.0060102863  -14059.793      492.10078     -13567.692    
Loop time of 1611.34 on 20 procs for 100000 steps with 742 atoms

Performance: 5.362 ns/day, 4.476 hours/ns, 62.060 timesteps/s, 46.049 katom-step/s
100.0% CPU use with 20 MPI tasks x no OpenMP threads

MPI task timing breakdown:
Section |  min time  |  avg time  |  max time  |%varavg| %total
---------------------------------------------------------------
Pair    | 2.5864     | 6.7972     | 12.468     | 108.7 |  0.42
Bond    | 0.077005   | 0.40414    | 0.83253    |  34.0 |  0.03
Kspace  | 11.046     | 16.941     | 21.29      |  69.7 |  1.05
Neigh   | 1.0123     | 1.0356     | 1.0531     |   1.1 |  0.06
Comm    | 5.3998     | 6.0363     | 6.6227     |  11.1 |  0.37
Output  | 0.085958   | 0.14142    | 0.17693    |   7.1 |  0.01
Modify  | 1579.2     | 1579.3     | 1579.3     |   0.1 | 98.01
Other   |            | 0.708      |            |       |  0.04

Nlocal:           37.1 ave          53 max          16 min
Histogram: 2 1 3 1 1 3 1 0 1 7
Nghost:        2557.45 ave        2751 max        2312 min
Histogram: 2 4 0 2 0 0 2 4 3 3
Neighs:           8715 ave       12393 max        3780 min
Histogram: 2 1 3 1 1 2 2 0 3 5

Total # of neighbors = 174300
Ave neighs/atom = 234.90566
Ave special neighs/atom = 8.2533693
Neighbor list builds = 1001992
Dangerous builds = 0

# --- Завершение ---
print "GCMC simulation finished." 
GCMC simulation finished.
Total wall time: 0:26:53
