LAMMPS (29 Aug 2024 - Update 2)
# LAMMPS input script for GCMC simulation of CO2 in MOF-5

variable press equal ${p}
variable press equal 10.0

# --- Инициализация ---
units           real
atom_style      full
boundary        p p p

# --- Определение стилей потенциалов ---
# Важно: эти стили должны соответствовать формату коэффициентов в data.MOF5_charged_simple
# и добавленным коэффициентам для CO2.
pair_style      lj/cut/coul/long 12.0 # Катофф 12 Ангстрем для LJ и кулона
bond_style      harmonic
angle_style     hybrid fourier cosine/periodic harmonic # MOF-5 использует fourier и cosine/periodic, CO2 - harmonic
dihedral_style  harmonic # Предполагаем, что диэдрали в MOF-5 совместимы с harmonic (K d n)
improper_style  fourier # Предполагаем, что несобственные углы в MOF-5 совместимы с umbrella (K chi0)

# --- Чтение данных MOF-5 ---
# Добавляем 2 новых типа атомов (для C и O в CO2), 1 новый тип связи (C=O), 1 новый тип угла (O=C=O)
read_data       data.MOF5_charged_simple extra/atom/types 2 extra/bond/types 1 extra/angle/types 1
Reading data file ...
  triclinic box = (0 0 0) to (26.029363 26.031584 26.028346) with tilt (0.003152 -0.002169 0.002663)
  2 by 5 by 2 MPI processor grid
  reading atoms ...
  424 atoms
  scanning bonds ...
  4 = max bonds/atom
  scanning angles ...
  6 = max angles/atom
  scanning dihedrals ...
  8 = max dihedrals/atom
  scanning impropers ...
  3 = max impropers/atom
  triclinic box = (0 0 0) to (26.029363 26.031584 26.028346) with tilt (0.003152 -0.002169 0.002663)
  2 by 5 by 2 MPI processor grid
  reading bonds ...
  512 bonds
  reading angles ...
  912 angles
  reading dihedrals ...
  960 dihedrals
  reading impropers ...
  576 impropers
Finding 1-2 1-3 1-4 neighbors ...
  special bond factors lj:    0        0        0       
  special bond factors coul:  0        0        0       
     4 = max # of 1-2 neighbors
    12 = max # of 1-3 neighbors
    24 = max # of 1-4 neighbors
    22 = max # of special neighbors
  special bonds CPU = 0.001 seconds
  read_data CPU = 0.019 seconds

# --- Определение параметров для CO2 ---
# Массы для новых типов атомов (6: C_CO2, 7: O_CO2)
mass            6 12.011   # C in CO2
mass            7 15.9994  # O in CO2

# Pair Coeffs для CO2 (MOF-5 pair_coeffs читаются из data-файла)
# pair_coeff I J epsilon sigma
pair_coeff      6 6 0.0514 2.85    # C_CO2 - C_CO2
pair_coeff      7 7 0.1600 3.02    # O_CO2 - O_CO2

# Правила смешивания для межмолекулярных взаимодействий (например, MOF-CO2)
# Lorentz-Berthelot по умолчанию для lj/cut/coul/long
pair_modify     mix arithmetic

# Bond Coeffs для CO2 (тип связи 7)
# bond_coeff Type K r0
bond_coeff      7 1000.0 1.16   # C=O

# Angle Coeffs для CO2 (тип угла 10)
# angle_coeff Type K theta0 (для стиля harmonic)
angle_coeff     10 harmonic 100.0 180.0 # O=C=O

# --- Настройки дальнодействующих взаимодействий ---
kspace_style    pppm 1.0e-5

# --- Определение молекулы CO2 ---
molecule        co2mol CO2.txt
Read molecule template co2mol:
# CO2 molecule template for LAMMPS
  1 molecules
  0 fragments
  3 atoms with max type 7
  2 bonds with max type 7
  1 angles with max type 10
  0 dihedrals with max type 0
  0 impropers with max type 0

# --- Настройки GCMC ---
variable        T equal 323.0       # Температура в Кельвинах
variable        P equal 0.1         # Давление в атмосферах
variable        fug_coeff equal 1.0 # Коэффициент фугитивности (для идеального газа = 1.0)
variable        seed equal 12345    # Начальное число для генератора случайных чисел

# Группа для атомов CO2 (типы 6 и 7)
group           co2_atoms type 6 7
0 atoms in group co2_atoms


# Variables for analysis
variable N_co2  equal count(co2_atoms)/3
variable ads_density equal v_N_co2/vol

dump            dall all atom 100 dumps_T323K/dump_npt_${press}.lammpstrj
dump            dall all atom 100 dumps_T323K/dump_npt_10.lammpstrj

fix             mynpt all nvt temp 323.0 323.0 100.0

# Thermo output
thermo          100
thermo_style    custom step temp press vol density etotal
run             10000
PPPM initialization ...
WARNING: System is not charge neutral, net charge = 0.0008 (../kspace.cpp:327)
  using 12-bit tables for long-range coulomb (../kspace.cpp:342)
  G vector (1/distance) = 0.2438405
  grid = 16 16 16
  stencil order = 5
  estimated absolute RMS force accuracy = 0.002249822
  estimated relative force accuracy = 6.7752721e-06
  using double precision KISS FFT
  3d grid and FFT values/proc = 2250 256
Generated 21 of 21 mixed pair_coeff terms from arithmetic mixing rule
Neighbor list info ...
  update: every = 1 steps, delay = 0 steps, check = yes
  max neighbors/atom: 2000, page size: 100000
  master list distance cutoff = 14
  ghost atom cutoff = 14
  binsize = 7, bins = 4 4 4
  1 neighbor lists, perpetual/occasional/extra = 1 0 0
  (1) pair lj/cut/coul/long, perpetual
      attributes: half, newton on
      pair build: half/bin/newton/tri
      stencil: half/bin/3d/tri
      bin: standard
WARNING: Inconsistent image flags (../domain.cpp:1051)
Per MPI rank memory allocation (min/avg/max) = 13.24 | 13.45 | 13.94 Mbytes
   Step          Temp          Press          Volume        Density         TotEng    
         0   0             -31876.762      17636.431      0.57988585    -12893.244    
       100   215.81618     -30001.165      17636.431      0.57988585    -12852.782    
       200   281.55273     -36317.207      17636.431      0.57988585    -12801.14     
       300   262.60426     -30731.372      17636.431      0.57988585    -12747.62     
       400   394.40769     -40419.447      17636.431      0.57988585    -12697.432    
       500   426.81384     -35339.342      17636.431      0.57988585    -12696.734    
       600   445.68342     -31391.172      17636.431      0.57988585    -12689.675    
       700   340.06177     -25335.541      17636.431      0.57988585    -12717.188    
       800   451.84125     -28127.584      17636.431      0.57988585    -12720.132    
       900   379.29813     -31931.356      17636.431      0.57988585    -12720.725    
      1000   270.18168     -31077.301      17636.431      0.57988585    -12717.292    
      1100   339.98184     -33991.773      17636.431      0.57988585    -12696.176    
      1200   195.28269     -28892.759      17636.431      0.57988585    -12701.275    
      1300   282.99437     -33038.819      17636.431      0.57988585    -12700.492    
      1400   210.67863     -27567.06       17636.431      0.57988585    -12705.28     
      1500   282.12906     -30224.155      17636.431      0.57988585    -12714.942    
      1600   328.85229     -22078.071      17636.431      0.57988585    -12701.208    
      1700   382.91382     -35034.265      17636.431      0.57988585    -12717.371    
      1800   420.6539      -34460.1        17636.431      0.57988585    -12699.376    
      1900   418.914       -35943.285      17636.431      0.57988585    -12712.641    
      2000   380.01732     -30465.413      17636.431      0.57988585    -12705.189    
      2100   322.66364     -34064.749      17636.431      0.57988585    -12709.981    
      2200   359.36629     -31349.062      17636.431      0.57988585    -12714.465    
      2300   349.70166     -32554.359      17636.431      0.57988585    -12706.125    
      2400   257.6496      -32639.685      17636.431      0.57988585    -12728.108    
      2500   298.59265     -32249.594      17636.431      0.57988585    -12764.441    
      2600   312.23191     -37500.746      17636.431      0.57988585    -12757.061    
      2700   207.57477     -34939.896      17636.431      0.57988585    -12735.499    
      2800   310.60139     -33272.706      17636.431      0.57988585    -12705.258    
      2900   346.50855     -27451.324      17636.431      0.57988585    -12703.437    
      3000   282.44179     -36423.597      17636.431      0.57988585    -12698.516    
      3100   274.08276     -27991.942      17636.431      0.57988585    -12713.951    
      3200   262.19885     -33881.414      17636.431      0.57988585    -12735.863    
      3300   285.9436      -31264.444      17636.431      0.57988585    -12745.837    
      3400   250.26332     -36839.027      17636.431      0.57988585    -12729.452    
      3500   320.89821     -32406.504      17636.431      0.57988585    -12689.55     
      3600   286.76949     -35394.447      17636.431      0.57988585    -12701.984    
      3700   348.54134     -27216.039      17636.431      0.57988585    -12709.061    
      3800   362.91049     -32291.497      17636.431      0.57988585    -12718.519    
      3900   272.51178     -36458.802      17636.431      0.57988585    -12724.6      
      4000   317.84721     -34604.681      17636.431      0.57988585    -12718.236    
      4100   312.9391      -31051.559      17636.431      0.57988585    -12692.491    
      4200   339.83938     -33642.104      17636.431      0.57988585    -12672.498    
      4300   354.7981      -35210.029      17636.431      0.57988585    -12682.861    
      4400   259.70529     -29758.068      17636.431      0.57988585    -12712.429    
      4500   340.74322     -32471.531      17636.431      0.57988585    -12709.159    
      4600   231.27998     -32365.622      17636.431      0.57988585    -12722.965    
      4700   297.52611     -34821.24       17636.431      0.57988585    -12709.38     
      4800   308.41525     -31851.596      17636.431      0.57988585    -12714.389    
      4900   273.07485     -37177.471      17636.431      0.57988585    -12680.335    
      5000   413.73709     -30325.593      17636.431      0.57988585    -12656.254    
      5100   352.48701     -32706.645      17636.431      0.57988585    -12677.771    
      5200   403.85155     -30467.339      17636.431      0.57988585    -12702.589    
      5300   360.57713     -34303.642      17636.431      0.57988585    -12716.091    
      5400   316.05582     -31392.348      17636.431      0.57988585    -12717.545    
      5500   366.53112     -34568.185      17636.431      0.57988585    -12712.912    
      5600   341.29204     -32093.109      17636.431      0.57988585    -12694.14     
      5700   415.11301     -31573.514      17636.431      0.57988585    -12664.193    
      5800   268.87048     -32939.527      17636.431      0.57988585    -12682.871    
      5900   352.51233     -34135.107      17636.431      0.57988585    -12718.386    
      6000   319.05151     -32608.673      17636.431      0.57988585    -12718.658    
      6100   296.66595     -32907.616      17636.431      0.57988585    -12719.439    
      6200   329.00581     -35954.011      17636.431      0.57988585    -12700.748    
      6300   327.93603     -33063.934      17636.431      0.57988585    -12691.389    
      6400   300.73056     -33438.202      17636.431      0.57988585    -12675.825    
      6500   362.67132     -29683.067      17636.431      0.57988585    -12696.512    
      6600   275.88072     -35249.145      17636.431      0.57988585    -12734.319    
      6700   313.79794     -31848.612      17636.431      0.57988585    -12731.9      
      6800   304.34351     -35895.593      17636.431      0.57988585    -12719.66     
      6900   344.56141     -33906.462      17636.431      0.57988585    -12696.011    
      7000   371.45165     -34955.897      17636.431      0.57988585    -12694.358    
      7100   338.66074     -29056.755      17636.431      0.57988585    -12705.775    
      7200   381.3116      -33526.153      17636.431      0.57988585    -12706.939    
      7300   282.84647     -31702.591      17636.431      0.57988585    -12716.825    
      7400   375.52777     -33180.7        17636.431      0.57988585    -12713.397    
      7500   321.7016      -30664.132      17636.431      0.57988585    -12714.396    
      7600   294.38204     -34332.778      17636.431      0.57988585    -12707.772    
      7700   392.31678     -33630.251      17636.431      0.57988585    -12696.306    
      7800   251.7077      -34759.532      17636.431      0.57988585    -12708.713    
      7900   339.39652     -32030.443      17636.431      0.57988585    -12723.116    
      8000   299.66703     -30004.212      17636.431      0.57988585    -12751.906    
      8100   286.05985     -30819.554      17636.431      0.57988585    -12743.757    
      8200   335.50791     -31194.225      17636.431      0.57988585    -12695.228    
      8300   331.17347     -35818.493      17636.431      0.57988585    -12694.317    
      8400   357.17649     -32925.788      17636.431      0.57988585    -12703.492    
      8500   329.42909     -33606.989      17636.431      0.57988585    -12725.7      
      8600   325.01993     -30239.564      17636.431      0.57988585    -12728.001    
      8700   378.34816     -32306.347      17636.431      0.57988585    -12712.078    
      8800   319.27086     -28881.035      17636.431      0.57988585    -12666.95     
      8900   363.35742     -34527.111      17636.431      0.57988585    -12678.495    
      9000   336.07195     -31412.757      17636.431      0.57988585    -12694.557    
      9100   268.483       -35813.539      17636.431      0.57988585    -12725.163    
      9200   313.87554     -33949.081      17636.431      0.57988585    -12723.837    
      9300   282.67743     -36742.976      17636.431      0.57988585    -12719.089    
      9400   343.29497     -30924.611      17636.431      0.57988585    -12706.326    
      9500   348.47083     -31381.873      17636.431      0.57988585    -12670.665    
      9600   350.60238     -30019.565      17636.431      0.57988585    -12663.655    
      9700   343.57025     -33164.766      17636.431      0.57988585    -12688.487    
      9800   308.45472     -32787.478      17636.431      0.57988585    -12718.896    
      9900   303.90362     -36082.817      17636.431      0.57988585    -12714.978    
     10000   303.20628     -33935.223      17636.431      0.57988585    -12714.548    
Loop time of 2.44951 on 20 procs for 10000 steps with 424 atoms

Performance: 352.724 ns/day, 0.068 hours/ns, 4082.453 timesteps/s, 1.731 Matom-step/s
99.9% CPU use with 20 MPI tasks x no OpenMP threads

MPI task timing breakdown:
Section |  min time  |  avg time  |  max time  |%varavg| %total
---------------------------------------------------------------
Pair    | 0.019601   | 0.20789    | 0.51919    |  35.2 |  8.49
Bond    | 0.0058462  | 0.039397   | 0.083215   |  12.8 |  1.61
Kspace  | 1.1654     | 1.487      | 1.715      |  13.7 | 60.71
Neigh   | 0.022571   | 0.023333   | 0.023996   |   0.2 |  0.95
Comm    | 0.5515     | 0.60042    | 0.63773    |   3.3 | 24.51
Output  | 0.0050679  | 0.0079527  | 0.010638   |   1.9 |  0.32
Modify  | 0.019529   | 0.037506   | 0.04957    |   4.4 |  1.53
Other   |            | 0.04604    |            |       |  1.88

Nlocal:           21.2 ave          39 max           1 min
Histogram: 3 3 2 0 1 3 0 0 2 6
Nghost:         1625.8 ave        1751 max        1457 min
Histogram: 8 0 0 0 0 0 0 0 4 8
Neighs:        2671.55 ave        4961 max         134 min
Histogram: 3 3 2 0 2 2 0 0 2 6

Total # of neighbors = 53431
Ave neighs/atom = 126.01651
Ave special neighs/atom = 12.943396
Neighbor list builds = 65
Dangerous builds = 0
unfix           mynpt


# Fix GCMC
# N: выполнять GCMC каждые N шагов
# Nexchange: количество попыток обмена (вставка/удаление)
# Ntranslate_rotate_mol: количество попыток трансляции/вращения молекулы
# Nrigidbody_... : 0, так как CO2 у нас гибкий
# mol co2mol: используемый шаблон молекулы
# full_energy: пересчитывать полную энергию системы (рекомендуется)
# pressure ${P}: давление (LAMMPS вычислит химический потенциал)
# displace: максимальное смещение для трансляции молекулы (в Ангстремах)
#fix             gcmc_run all gcmc 100 100 100 0 ${seed} ${T} ${P} ${fug_coeff} mol co2mol full_energy displace 0.5
fix             GCMC co2_atoms gcmc 100 1000 0 0 12345 323.0 -5.0 0.5 mol co2mol pressure ${press} full_energy group co2_atoms
fix             GCMC co2_atoms gcmc 100 1000 0 0 12345 323.0 -5.0 0.5 mol co2mol pressure 10 full_energy group co2_atoms

# --- Настройки вывода ---
#thermo_style    custom step temp press pe etotal natoms ncmc_insert ncmc_delete ncmc_trans ncmc_rotate ncmc_attempt ncmc_accept atoms_in_gcmc_mol


thermo          1000
thermo_style    custom step temp press v_N_co2 v_ads_density pe ke etotal
dump            gcmc_dump all atom 500 dumps_T323K/dump.gcmc_mof5_co2_${press}.lammpstrj
dump            gcmc_dump all atom 500 dumps_T323K/dump.gcmc_mof5_co2_10.lammpstrj

# --- Запуск симуляции ---
# Для GCMC обычно не нужен MD integrator для всей системы, если только не изучается динамика каркаса.
# Если каркас должен быть подвижен, добавьте fix nvt для атомов MOF-5.
# Например, если атомы MOF-5 должны оставаться фиксированными:
# group mof_atoms type <= 5
# fix freeze_mof mof_atoms setforce 0.0 0.0 0.0
# Однако, для GCMC лучше, чтобы каркас был термостатирован, если он не абсолютно жесткий.
# Если вы хотите просто провести GCMC без MD шагов для каркаса:
# run 0 post no # Это позволит fix gcmc работать без MD шагов
# Но обычно GCMC совмещают с MD:
timestep        1.0 # фемтосекунды (если есть MD)
run             100000 # Количество шагов GCMC/MD
WARNING: No fixes with time integration, atoms won't move (../verlet.cpp:60)
PPPM initialization ...
  using 12-bit tables for long-range coulomb (../kspace.cpp:342)
  G vector (1/distance) = 0.2438405
  grid = 16 16 16
  stencil order = 5
  estimated absolute RMS force accuracy = 0.002249822
  estimated relative force accuracy = 6.7752721e-06
  using double precision KISS FFT
  3d grid and FFT values/proc = 2250 256
Generated 21 of 21 mixed pair_coeff terms from arithmetic mixing rule
0 atoms in group FixGCMC:gcmc_exclusion_group:GCMC
0 atoms in group FixGCMC:rotation_gas_atoms:GCMC
WARNING: Neighbor exclusions used with KSpace solver may give inconsistent Coulombic energies (../neighbor.cpp:666)
WARNING: Inconsistent image flags (../domain.cpp:1051)
Per MPI rank memory allocation (min/avg/max) = 14.24 | 14.49 | 14.94 Mbytes
   Step          Temp          Press         v_N_co2     v_ads_density      PotEng         KinEng         TotEng    
     10000   303.20628     -33935.223      0              0             -13096.856      382.30753     -12714.548    
     11000   370.44735     -33596.036      97             0.005499979   -13630.702      467.09064     -13163.612    
     12000   386.72388     -33435.385      110            0.0062370895  -13741.011      487.61343     -13253.397    
     13000   391.40609     -33109.763      119            0.0067473969  -13810.797      493.51714     -13317.28     
     14000   393.35383     -32555.042      136            0.0077113107  -13915.124      495.97302     -13419.151    
     15000   399.35072     -32748.18       129            0.007314405   -13893.4        503.5344      -13389.865    
     16000   407.58127     -33046.762      136            0.0077113107  -13939.049      513.91215     -13425.137    
     17000   417.88842     -32763.785      142            0.0080515156  -13972.38       526.90826     -13445.472    
     18000   411.7188      -32742.627      145            0.008221618   -13998.944      519.1291      -13479.815    
     19000   418.67281     -32392.954      151            0.0085618229  -14045.392      527.89728     -13517.495    
     20000   419.83164     -32452.961      152            0.0086185237  -14049.19       529.35843     -13519.831    
     21000   418.02401     -32563.124      149            0.0084484213  -14044.513      527.07922     -13517.434    
     22000   411.47817     -32443.076      148            0.0083917205  -14048.772      518.82568     -13529.946    
     23000   412.12424     -32137.18       150            0.0085051221  -14076.218      519.64031     -13556.577    
     24000   408.35623     -31912.717      156            0.008845327   -14119.852      514.88929     -13604.963    
     25000   406.90986     -31976          148            0.0083917205  -14074.269      513.06558     -13561.203    
     26000   413.24468     -31854.738      156            0.008845327   -14121.851      521.05305     -13600.798    
     27000   418.98554     -31819.518      154            0.0087319253  -14116.178      528.29159     -13587.887    
     28000   422.40501     -31843.973      160            0.0090721302  -14154.342      532.60315     -13621.739    
     29000   413.32778     -32210.298      150            0.0085051221  -14104.181      521.15783     -13583.023    
     30000   414.59238     -32119.8        149            0.0084484213  -14088.564      522.75235     -13565.812    
     31000   415.53136     -32204.15       146            0.0082783188  -14077.055      523.93628     -13553.119    
     32000   421.10587     -32334.595      151            0.0085618229  -14113.148      530.96508     -13582.183    
     33000   423.71111     -32335.363      151            0.0085618229  -14115.353      534.24998     -13581.103    
     34000   434.24243     -32202.943      163            0.0092422327  -14175.503      547.52874     -13627.974    
     35000   419.45605     -32487.112      152            0.0086185237  -14130.616      528.88485     -13601.731    
     36000   420.28045     -32442.519      154            0.0087319253  -14135.593      529.92433     -13605.669    
     37000   424.09602     -32248.822      159            0.0090154294  -14159.794      534.73531     -13625.059    
     38000   423.09586     -32316.204      159            0.0090154294  -14168.016      533.47424     -13634.542    
     39000   422.92065     -32246.131      159            0.0090154294  -14164.725      533.25331     -13631.472    
     40000   422.70926     -32171.859      159            0.0090154294  -14178.098      532.98678     -13645.111    
     41000   419.62341     -32288.925      159            0.0090154294  -14175.738      529.09588     -13646.643    
     42000   417.99386     -32546.988      161            0.009128831   -14195.893      527.04121     -13668.852    
     43000   414.70308     -32559.688      157            0.0089020278  -14173.67       522.89192     -13650.778    
     44000   414.1176      -32621.408      158            0.0089587286  -14174.146      522.1537      -13651.992    
     45000   415.67663     -32474.498      158            0.0089587286  -14179.473      524.11945     -13655.353    
     46000   414.39605     -32672.723      159            0.0090154294  -14185.756      522.50479     -13663.251    
     47000   412.51092     -32289.584      158            0.0089587286  -14188.577      520.12786     -13668.449    
     48000   415.37633     -32376.486      160            0.0090721302  -14201.018      523.74081     -13677.277    
     49000   413.90244     -32304.454      153            0.0086752245  -14167.487      521.8824      -13645.604    
     50000   412.01084     -32499.005      153            0.0086752245  -14167.031      519.49732     -13647.534    
     51000   415.88699     -32564.961      161            0.009128831   -14193.348      524.38469     -13668.964    
     52000   407.47496     -32537.195      153            0.0086752245  -14167.041      513.7781      -13653.263    
     53000   414.76927     -32325.775      158            0.0089587286  -14185.378      522.97538     -13662.402    
     54000   414.58973     -32407.68       163            0.0092422327  -14214.1        522.74899     -13691.351    
     55000   412.84583     -32418.384      162            0.0091855319  -14214.171      520.55015     -13693.62     
     56000   419.0605      -32405.146      167            0.0094690359  -14240.312      528.38611     -13711.926    
     57000   415.84588     -32178.877      163            0.0092422327  -14217.357      524.33286     -13693.024    
     58000   417.14845     -32408.623      162            0.0091855319  -14222.33       525.97524     -13696.355    
     59000   422.30911     -32304.955      164            0.0092989335  -14241.397      532.48223     -13708.915    
     60000   422.8112      -32391.915      164            0.0092989335  -14246.153      533.1153      -13713.038    
     61000   426.1069      -32488.722      166            0.0094123351  -14254.466      537.2708      -13717.195    
     62000   423.75978     -32530.584      163            0.0092422327  -14243.706      534.31136     -13709.394    
     63000   427.98719     -32375.902      166            0.0094123351  -14247.714      539.64163     -13708.072    
     64000   423.15826     -32517.244      162            0.0091855319  -14229.973      533.55291     -13696.42     
     65000   422.34862     -32693.177      163            0.0092422327  -14235.566      532.53205     -13703.034    
     66000   424.81017     -32797.397      160            0.0090721302  -14219.352      535.63578     -13683.716    
     67000   421.44857     -32727.76       164            0.0092989335  -14235.345      531.39719     -13703.948    
     68000   423.29135     -32488.097      164            0.0092989335  -14238.33       533.72072     -13704.609    
     69000   419.3987      -32685.471      162            0.0091855319  -14235.998      528.81254     -13707.185    
     70000   418.06974     -32657.348      164            0.0092989335  -14244.594      527.13689     -13717.457    
     71000   422.75289     -32727.243      165            0.0093556343  -14248.518      533.04179     -13715.477    
     72000   421.51454     -32647.003      165            0.0093556343  -14253.55       531.48037     -13722.07     
     73000   429.61207     -32579.228      166            0.0094123351  -14261.191      541.6904      -13719.501    
     74000   425.27021     -32788.566      164            0.0092989335  -14254.067      536.21583     -13717.852    
     75000   422.5048      -32787.039      163            0.0092422327  -14249.369      532.72898     -13716.64     
     76000   429.21765     -32642.568      169            0.0095824376  -14280.111      541.19308     -13738.918    
     77000   426.38007     -32558.432      167            0.0094690359  -14265.258      537.61523     -13727.643    
     78000   429.69166     -32375.806      174            0.0098659416  -14306.582      541.79076     -13764.791    
     79000   426.80301     -32634.49       170            0.0096391384  -14296.38       538.14852     -13758.232    
     80000   427.77684     -32706.269      172            0.00975254    -14304.553      539.37639     -13765.177    
     81000   427.92179     -32449.303      170            0.0096391384  -14291.648      539.55916     -13752.088    
     82000   431.58215     -32427.696      171            0.0096958392  -14295.262      544.17445     -13751.088    
     83000   426.39995     -32535.468      167            0.0094690359  -14268.835      537.6403      -13731.195    
     84000   424.82379     -32555.226      166            0.0094123351  -14267.892      535.65295     -13732.239    
     85000   425.76647     -32518.139      167            0.0094690359  -14276.978      536.84156     -13740.136    
     86000   429.9455      -32602.957      171            0.0096958392  -14297.397      542.11083     -13755.286    
     87000   428.62647     -32490.794      170            0.0096391384  -14294.657      540.44768     -13754.209    
     88000   431.1244      -32486.496      171            0.0096958392  -14305.022      543.59727     -13761.424    
     89000   431.72761     -32492.024      173            0.0098092408  -14313.785      544.35786     -13769.427    
     90000   430.54878     -32626.335      172            0.00975254    -14305.062      542.87149     -13762.19     
     91000   428.02319     -32622.113      171            0.0096958392  -14299.318      539.68701     -13759.631    
     92000   423.80572     -32501.932      169            0.0095824376  -14283.647      534.36927     -13749.277    
     93000   424.65289     -32634.246      171            0.0096958392  -14294.569      535.43746     -13759.132    
     94000   420.39462     -32737.818      169            0.0095824376  -14287.75       530.06828     -13757.682    
     95000   422.94293     -32670.434      168            0.0095257367  -14288.293      533.28141     -13755.011    
     96000   421.87632     -32350.545      172            0.00975254    -14309.075      531.93653     -13777.138    
     97000   418.07202     -32438.859      165            0.0093556343  -14277.467      527.13976     -13750.328    
     98000   417.44477     -32639.38       167            0.0094690359  -14288.971      526.34887     -13762.623    
     99000   422.04746     -32439.844      166            0.0094123351  -14279.46       532.15231     -13747.308    
    100000   422.68208     -32691.032      165            0.0093556343  -14275.17       532.9525      -13742.217    
    101000   424.14995     -32617.165      169            0.0095824376  -14297.472      534.80332     -13762.668    
    102000   425.6158      -32477.064      171            0.0096958392  -14310.307      536.65158     -13773.656    
    103000   421.87691     -32536.114      168            0.0095257367  -14294.351      531.93728     -13762.414    
    104000   419.50374     -32524.259      163            0.0092422327  -14266.926      528.94499     -13737.981    
    105000   421.17389     -32527.112      164            0.0092989335  -14264.828      531.05085     -13733.777    
    106000   419.19584     -32518.913      163            0.0092422327  -14259.459      528.55676     -13730.902    
    107000   426.08046     -32320.477      170            0.0096391384  -14299.988      537.23746     -13762.751    
    108000   424.29284     -32299.244      168            0.0095257367  -14291.265      534.98349     -13756.281    
    109000   425.55903     -32256.007      171            0.0096958392  -14310.618      536.58        -13774.038    
    110000   427.48158     -32102.203      171            0.0096958392  -14309.998      539.0041      -13770.994    
Loop time of 2212.69 on 20 procs for 100000 steps with 937 atoms

Performance: 3.905 ns/day, 6.146 hours/ns, 45.194 timesteps/s, 42.347 katom-step/s
100.0% CPU use with 20 MPI tasks x no OpenMP threads

MPI task timing breakdown:
Section |  min time  |  avg time  |  max time  |%varavg| %total
---------------------------------------------------------------
Pair    | 5.7926     | 11.057     | 16.166     | 109.8 |  0.50
Bond    | 0.08938    | 0.44138    | 0.85424    |  34.8 |  0.02
Kspace  | 15.857     | 20.491     | 25.582     |  80.7 |  0.93
Neigh   | 1.4059     | 1.427      | 1.447      |   1.0 |  0.06
Comm    | 8.4871     | 9.3144     | 9.7362     |  10.0 |  0.42
Output  | 0.088238   | 0.14611    | 0.18455    |   6.6 |  0.01
Modify  | 2169.1     | 2169.1     | 2169.2     |   0.1 | 98.03
Other   |            | 0.7065     |            |       |  0.03

Nlocal:          46.85 ave          62 max          24 min
Histogram: 1 1 2 3 1 0 4 2 2 4
Nghost:         3121.3 ave        3254 max        2950 min
Histogram: 2 3 1 2 0 1 0 5 3 3
Neighs:        14186.1 ave       18604 max        7432 min
Histogram: 1 1 2 2 2 0 4 2 2 4

Total # of neighbors = 283722
Ave neighs/atom = 302.79829
Ave special neighs/atom = 6.9519744
Neighbor list builds = 1001992
Dangerous builds = 0

# --- Завершение ---
print "GCMC simulation finished." 
GCMC simulation finished.
Total wall time: 0:36:55
