LAMMPS (29 Aug 2024 - Update 2)
# LAMMPS input script for GCMC simulation of CO2 in MOF-5

variable press equal ${p}
variable press equal 0.1

# --- Инициализация ---
units           real
atom_style      full
boundary        p p p

# --- Определение стилей потенциалов ---
# Важно: эти стили должны соответствовать формату коэффициентов в data.MOF5_charged_simple
# и добавленным коэффициентам для CO2.
pair_style      lj/cut/coul/long 12.0 # Катофф 12 Ангстрем для LJ и кулона
bond_style      harmonic
angle_style     hybrid fourier cosine/periodic harmonic # MOF-5 использует fourier и cosine/periodic, CO2 - harmonic
dihedral_style  harmonic # Предполагаем, что диэдрали в MOF-5 совместимы с harmonic (K d n)
improper_style  fourier # Предполагаем, что несобственные углы в MOF-5 совместимы с umbrella (K chi0)

# --- Чтение данных MOF-5 ---
# Добавляем 2 новых типа атомов (для C и O в CO2), 1 новый тип связи (C=O), 1 новый тип угла (O=C=O)
read_data       data.MOF5_charged_simple extra/atom/types 2 extra/bond/types 1 extra/angle/types 1
Reading data file ...
  triclinic box = (0 0 0) to (26.029363 26.031584 26.028346) with tilt (0.003152 -0.002169 0.002663)
  2 by 5 by 2 MPI processor grid
  reading atoms ...
  424 atoms
  scanning bonds ...
  4 = max bonds/atom
  scanning angles ...
  6 = max angles/atom
  scanning dihedrals ...
  8 = max dihedrals/atom
  scanning impropers ...
  3 = max impropers/atom
  triclinic box = (0 0 0) to (26.029363 26.031584 26.028346) with tilt (0.003152 -0.002169 0.002663)
  2 by 5 by 2 MPI processor grid
  reading bonds ...
  512 bonds
  reading angles ...
  912 angles
  reading dihedrals ...
  960 dihedrals
  reading impropers ...
  576 impropers
Finding 1-2 1-3 1-4 neighbors ...
  special bond factors lj:    0        0        0       
  special bond factors coul:  0        0        0       
     4 = max # of 1-2 neighbors
    12 = max # of 1-3 neighbors
    24 = max # of 1-4 neighbors
    22 = max # of special neighbors
  special bonds CPU = 0.002 seconds
  read_data CPU = 0.016 seconds

# --- Определение параметров для CO2 ---
# Массы для новых типов атомов (6: C_CO2, 7: O_CO2)
mass            6 12.011   # C in CO2
mass            7 15.9994  # O in CO2

# Pair Coeffs для CO2 (MOF-5 pair_coeffs читаются из data-файла)
# pair_coeff I J epsilon sigma
pair_coeff      6 6 0.0514 2.85    # C_CO2 - C_CO2
pair_coeff      7 7 0.1600 3.02    # O_CO2 - O_CO2

# Правила смешивания для межмолекулярных взаимодействий (например, MOF-CO2)
# Lorentz-Berthelot по умолчанию для lj/cut/coul/long
pair_modify     mix arithmetic

# Bond Coeffs для CO2 (тип связи 7)
# bond_coeff Type K r0
bond_coeff      7 1000.0 1.16   # C=O

# Angle Coeffs для CO2 (тип угла 10)
# angle_coeff Type K theta0 (для стиля harmonic)
angle_coeff     10 harmonic 100.0 180.0 # O=C=O

# --- Настройки дальнодействующих взаимодействий ---
kspace_style    pppm 1.0e-5

# --- Определение молекулы CO2 ---
molecule        co2mol CO2.txt
Read molecule template co2mol:
# CO2 molecule template for LAMMPS
  1 molecules
  0 fragments
  3 atoms with max type 7
  2 bonds with max type 7
  1 angles with max type 10
  0 dihedrals with max type 0
  0 impropers with max type 0

# --- Настройки GCMC ---
variable        T equal 323.0       # Температура в Кельвинах
variable        P equal 0.1         # Давление в атмосферах
variable        fug_coeff equal 1.0 # Коэффициент фугитивности (для идеального газа = 1.0)
variable        seed equal 12345    # Начальное число для генератора случайных чисел

# Группа для атомов CO2 (типы 6 и 7)
group           co2_atoms type 6 7
0 atoms in group co2_atoms


# Variables for analysis
variable N_co2  equal count(co2_atoms)/3
variable ads_density equal v_N_co2/vol

dump            dall all atom 100 dumps_T323K/dump_npt_${press}.lammpstrj
dump            dall all atom 100 dumps_T323K/dump_npt_0.1.lammpstrj

fix             mynpt all nvt temp 323.0 323.0 100.0

# Thermo output
thermo          100
thermo_style    custom step temp press vol density etotal
run             10000
PPPM initialization ...
WARNING: System is not charge neutral, net charge = 0.0008 (../kspace.cpp:327)
  using 12-bit tables for long-range coulomb (../kspace.cpp:342)
  G vector (1/distance) = 0.2438405
  grid = 16 16 16
  stencil order = 5
  estimated absolute RMS force accuracy = 0.002249822
  estimated relative force accuracy = 6.7752721e-06
  using double precision KISS FFT
  3d grid and FFT values/proc = 2250 256
Generated 21 of 21 mixed pair_coeff terms from arithmetic mixing rule
Neighbor list info ...
  update: every = 1 steps, delay = 0 steps, check = yes
  max neighbors/atom: 2000, page size: 100000
  master list distance cutoff = 14
  ghost atom cutoff = 14
  binsize = 7, bins = 4 4 4
  1 neighbor lists, perpetual/occasional/extra = 1 0 0
  (1) pair lj/cut/coul/long, perpetual
      attributes: half, newton on
      pair build: half/bin/newton/tri
      stencil: half/bin/3d/tri
      bin: standard
WARNING: Inconsistent image flags (../domain.cpp:1051)
Per MPI rank memory allocation (min/avg/max) = 13.24 | 13.45 | 13.94 Mbytes
   Step          Temp          Press          Volume        Density         TotEng    
         0   0             -31876.762      17636.431      0.57988585    -12893.244    
       100   215.81618     -30001.165      17636.431      0.57988585    -12852.782    
       200   281.55273     -36317.207      17636.431      0.57988585    -12801.14     
       300   262.60426     -30731.372      17636.431      0.57988585    -12747.62     
       400   394.40769     -40419.447      17636.431      0.57988585    -12697.432    
       500   426.81384     -35339.342      17636.431      0.57988585    -12696.734    
       600   445.68342     -31391.172      17636.431      0.57988585    -12689.675    
       700   340.06177     -25335.541      17636.431      0.57988585    -12717.188    
       800   451.84125     -28127.584      17636.431      0.57988585    -12720.132    
       900   379.29813     -31931.356      17636.431      0.57988585    -12720.725    
      1000   270.18168     -31077.301      17636.431      0.57988585    -12717.292    
      1100   339.98184     -33991.773      17636.431      0.57988585    -12696.176    
      1200   195.28269     -28892.759      17636.431      0.57988585    -12701.275    
      1300   282.99437     -33038.819      17636.431      0.57988585    -12700.492    
      1400   210.67863     -27567.06       17636.431      0.57988585    -12705.28     
      1500   282.12906     -30224.155      17636.431      0.57988585    -12714.942    
      1600   328.85229     -22078.071      17636.431      0.57988585    -12701.208    
      1700   382.91382     -35034.265      17636.431      0.57988585    -12717.371    
      1800   420.6539      -34460.1        17636.431      0.57988585    -12699.376    
      1900   418.914       -35943.285      17636.431      0.57988585    -12712.641    
      2000   380.01732     -30465.413      17636.431      0.57988585    -12705.189    
      2100   322.66364     -34064.749      17636.431      0.57988585    -12709.981    
      2200   359.36629     -31349.062      17636.431      0.57988585    -12714.465    
      2300   349.70166     -32554.359      17636.431      0.57988585    -12706.125    
      2400   257.6496      -32639.685      17636.431      0.57988585    -12728.108    
      2500   298.59265     -32249.594      17636.431      0.57988585    -12764.441    
      2600   312.23191     -37500.746      17636.431      0.57988585    -12757.061    
      2700   207.57477     -34939.896      17636.431      0.57988585    -12735.499    
      2800   310.60139     -33272.706      17636.431      0.57988585    -12705.258    
      2900   346.50855     -27451.324      17636.431      0.57988585    -12703.437    
      3000   282.44179     -36423.597      17636.431      0.57988585    -12698.516    
      3100   274.08276     -27991.942      17636.431      0.57988585    -12713.951    
      3200   262.19885     -33881.414      17636.431      0.57988585    -12735.863    
      3300   285.9436      -31264.444      17636.431      0.57988585    -12745.837    
      3400   250.26332     -36839.027      17636.431      0.57988585    -12729.452    
      3500   320.89821     -32406.504      17636.431      0.57988585    -12689.55     
      3600   286.76949     -35394.447      17636.431      0.57988585    -12701.984    
      3700   348.54134     -27216.039      17636.431      0.57988585    -12709.061    
      3800   362.91049     -32291.497      17636.431      0.57988585    -12718.519    
      3900   272.51178     -36458.802      17636.431      0.57988585    -12724.6      
      4000   317.84721     -34604.681      17636.431      0.57988585    -12718.236    
      4100   312.9391      -31051.559      17636.431      0.57988585    -12692.491    
      4200   339.83938     -33642.104      17636.431      0.57988585    -12672.498    
      4300   354.7981      -35210.029      17636.431      0.57988585    -12682.861    
      4400   259.70529     -29758.068      17636.431      0.57988585    -12712.429    
      4500   340.74322     -32471.531      17636.431      0.57988585    -12709.159    
      4600   231.27998     -32365.622      17636.431      0.57988585    -12722.965    
      4700   297.52611     -34821.24       17636.431      0.57988585    -12709.38     
      4800   308.41525     -31851.596      17636.431      0.57988585    -12714.389    
      4900   273.07485     -37177.471      17636.431      0.57988585    -12680.335    
      5000   413.73709     -30325.593      17636.431      0.57988585    -12656.254    
      5100   352.48701     -32706.645      17636.431      0.57988585    -12677.771    
      5200   403.85155     -30467.339      17636.431      0.57988585    -12702.589    
      5300   360.57713     -34303.642      17636.431      0.57988585    -12716.091    
      5400   316.05582     -31392.348      17636.431      0.57988585    -12717.545    
      5500   366.53112     -34568.185      17636.431      0.57988585    -12712.912    
      5600   341.29204     -32093.109      17636.431      0.57988585    -12694.14     
      5700   415.11301     -31573.514      17636.431      0.57988585    -12664.193    
      5800   268.87048     -32939.527      17636.431      0.57988585    -12682.871    
      5900   352.51233     -34135.107      17636.431      0.57988585    -12718.386    
      6000   319.05151     -32608.673      17636.431      0.57988585    -12718.658    
      6100   296.66595     -32907.616      17636.431      0.57988585    -12719.439    
      6200   329.00581     -35954.011      17636.431      0.57988585    -12700.748    
      6300   327.93603     -33063.934      17636.431      0.57988585    -12691.389    
      6400   300.73056     -33438.202      17636.431      0.57988585    -12675.825    
      6500   362.67132     -29683.067      17636.431      0.57988585    -12696.512    
      6600   275.88072     -35249.145      17636.431      0.57988585    -12734.319    
      6700   313.79794     -31848.612      17636.431      0.57988585    -12731.9      
      6800   304.34351     -35895.593      17636.431      0.57988585    -12719.66     
      6900   344.56141     -33906.462      17636.431      0.57988585    -12696.011    
      7000   371.45165     -34955.897      17636.431      0.57988585    -12694.358    
      7100   338.66074     -29056.755      17636.431      0.57988585    -12705.775    
      7200   381.3116      -33526.153      17636.431      0.57988585    -12706.939    
      7300   282.84647     -31702.591      17636.431      0.57988585    -12716.825    
      7400   375.52777     -33180.7        17636.431      0.57988585    -12713.397    
      7500   321.7016      -30664.132      17636.431      0.57988585    -12714.396    
      7600   294.38204     -34332.778      17636.431      0.57988585    -12707.772    
      7700   392.31678     -33630.251      17636.431      0.57988585    -12696.306    
      7800   251.7077      -34759.532      17636.431      0.57988585    -12708.713    
      7900   339.39652     -32030.443      17636.431      0.57988585    -12723.116    
      8000   299.66703     -30004.212      17636.431      0.57988585    -12751.906    
      8100   286.05985     -30819.554      17636.431      0.57988585    -12743.757    
      8200   335.50791     -31194.225      17636.431      0.57988585    -12695.228    
      8300   331.17347     -35818.493      17636.431      0.57988585    -12694.317    
      8400   357.17649     -32925.788      17636.431      0.57988585    -12703.492    
      8500   329.42909     -33606.989      17636.431      0.57988585    -12725.7      
      8600   325.01993     -30239.564      17636.431      0.57988585    -12728.001    
      8700   378.34816     -32306.347      17636.431      0.57988585    -12712.078    
      8800   319.27086     -28881.035      17636.431      0.57988585    -12666.95     
      8900   363.35742     -34527.111      17636.431      0.57988585    -12678.495    
      9000   336.07195     -31412.757      17636.431      0.57988585    -12694.557    
      9100   268.483       -35813.539      17636.431      0.57988585    -12725.163    
      9200   313.87554     -33949.081      17636.431      0.57988585    -12723.837    
      9300   282.67743     -36742.976      17636.431      0.57988585    -12719.089    
      9400   343.29497     -30924.611      17636.431      0.57988585    -12706.326    
      9500   348.47083     -31381.873      17636.431      0.57988585    -12670.665    
      9600   350.60238     -30019.565      17636.431      0.57988585    -12663.655    
      9700   343.57025     -33164.766      17636.431      0.57988585    -12688.487    
      9800   308.45472     -32787.478      17636.431      0.57988585    -12718.896    
      9900   303.90362     -36082.817      17636.431      0.57988585    -12714.978    
     10000   303.20628     -33935.223      17636.431      0.57988585    -12714.548    
Loop time of 2.3108 on 20 procs for 10000 steps with 424 atoms

Performance: 373.897 ns/day, 0.064 hours/ns, 4327.510 timesteps/s, 1.835 Matom-step/s
99.9% CPU use with 20 MPI tasks x no OpenMP threads

MPI task timing breakdown:
Section |  min time  |  avg time  |  max time  |%varavg| %total
---------------------------------------------------------------
Pair    | 0.019163   | 0.19221    | 0.44894    |  30.3 |  8.32
Bond    | 0.0058837  | 0.035637   | 0.0759     |  10.9 |  1.54
Kspace  | 1.161      | 1.4222     | 1.6123     |  11.4 | 61.55
Neigh   | 0.020542   | 0.021636   | 0.022146   |   0.3 |  0.94
Comm    | 0.52844    | 0.55131    | 0.58568    |   2.2 | 23.86
Output  | 0.0048405  | 0.0076466  | 0.010451   |   2.0 |  0.33
Modify  | 0.019804   | 0.034679   | 0.05076    |   5.2 |  1.50
Other   |            | 0.04549    |            |       |  1.97

Nlocal:           21.2 ave          39 max           1 min
Histogram: 3 3 2 0 1 3 0 0 2 6
Nghost:         1625.8 ave        1751 max        1457 min
Histogram: 8 0 0 0 0 0 0 0 4 8
Neighs:        2671.55 ave        4961 max         134 min
Histogram: 3 3 2 0 2 2 0 0 2 6

Total # of neighbors = 53431
Ave neighs/atom = 126.01651
Ave special neighs/atom = 12.943396
Neighbor list builds = 65
Dangerous builds = 0
unfix           mynpt


# Fix GCMC
# N: выполнять GCMC каждые N шагов
# Nexchange: количество попыток обмена (вставка/удаление)
# Ntranslate_rotate_mol: количество попыток трансляции/вращения молекулы
# Nrigidbody_... : 0, так как CO2 у нас гибкий
# mol co2mol: используемый шаблон молекулы
# full_energy: пересчитывать полную энергию системы (рекомендуется)
# pressure ${P}: давление (LAMMPS вычислит химический потенциал)
# displace: максимальное смещение для трансляции молекулы (в Ангстремах)
#fix             gcmc_run all gcmc 100 100 100 0 ${seed} ${T} ${P} ${fug_coeff} mol co2mol full_energy displace 0.5
fix             GCMC co2_atoms gcmc 100 1000 0 0 12345 323.0 -5.0 0.5 mol co2mol pressure ${press} full_energy group co2_atoms
fix             GCMC co2_atoms gcmc 100 1000 0 0 12345 323.0 -5.0 0.5 mol co2mol pressure 0.1 full_energy group co2_atoms

# --- Настройки вывода ---
#thermo_style    custom step temp press pe etotal natoms ncmc_insert ncmc_delete ncmc_trans ncmc_rotate ncmc_attempt ncmc_accept atoms_in_gcmc_mol


thermo          1000
thermo_style    custom step temp press v_N_co2 v_ads_density pe ke etotal
dump            gcmc_dump all atom 500 dumps_T323K/dump.gcmc_mof5_co2_${press}.lammpstrj
dump            gcmc_dump all atom 500 dumps_T323K/dump.gcmc_mof5_co2_0.1.lammpstrj

# --- Запуск симуляции ---
# Для GCMC обычно не нужен MD integrator для всей системы, если только не изучается динамика каркаса.
# Если каркас должен быть подвижен, добавьте fix nvt для атомов MOF-5.
# Например, если атомы MOF-5 должны оставаться фиксированными:
# group mof_atoms type <= 5
# fix freeze_mof mof_atoms setforce 0.0 0.0 0.0
# Однако, для GCMC лучше, чтобы каркас был термостатирован, если он не абсолютно жесткий.
# Если вы хотите просто провести GCMC без MD шагов для каркаса:
# run 0 post no # Это позволит fix gcmc работать без MD шагов
# Но обычно GCMC совмещают с MD:
timestep        1.0 # фемтосекунды (если есть MD)
run             100000 # Количество шагов GCMC/MD
WARNING: No fixes with time integration, atoms won't move (../verlet.cpp:60)
PPPM initialization ...
  using 12-bit tables for long-range coulomb (../kspace.cpp:342)
  G vector (1/distance) = 0.2438405
  grid = 16 16 16
  stencil order = 5
  estimated absolute RMS force accuracy = 0.002249822
  estimated relative force accuracy = 6.7752721e-06
  using double precision KISS FFT
  3d grid and FFT values/proc = 2250 256
Generated 21 of 21 mixed pair_coeff terms from arithmetic mixing rule
0 atoms in group FixGCMC:gcmc_exclusion_group:GCMC
0 atoms in group FixGCMC:rotation_gas_atoms:GCMC
WARNING: Neighbor exclusions used with KSpace solver may give inconsistent Coulombic energies (../neighbor.cpp:666)
WARNING: Inconsistent image flags (../domain.cpp:1051)
Per MPI rank memory allocation (min/avg/max) = 14.24 | 14.49 | 14.94 Mbytes
   Step          Temp          Press         v_N_co2     v_ads_density      PotEng         KinEng         TotEng    
     10000   303.20628     -33935.223      0              0             -13096.856      382.30753     -12714.548    
     11000   326.93987     -33726.978      30             0.0017010244  -13350.94       412.23281     -12938.707    
     12000   336.13031     -33762.02       44             0.0024948358  -13479.438      423.82088     -13055.617    
     13000   343.60982     -33383.597      50             0.0028350407  -13543.696      433.25167     -13110.445    
     14000   342.14402     -33347.746      53             0.0030051431  -13558.854      431.40346     -13127.451    
     15000   356.46935     -33203.98       62             0.0035154505  -13627.673      449.46601     -13178.207    
     16000   347.36034     -33253.996      61             0.0034587497  -13638.12       437.98062     -13200.139    
     17000   348.51446     -33343.14       58             0.0032886472  -13629.305      439.43584     -13189.869    
     18000   348.62919     -33395.159      67             0.0037989545  -13696.774      439.5805      -13257.193    
     19000   349.46368     -33479.309      59             0.003345348   -13648.561      440.63269     -13207.928    
     20000   354.15658     -33499.811      66             0.0037422537  -13697.122      446.54988     -13250.572    
     21000   355.98015     -33410.872      67             0.0037989545  -13718.848      448.8492      -13269.999    
     22000   354.0307      -33459.005      64             0.0036288521  -13708.618      446.39117     -13262.227    
     23000   359.09063     -33436.464      69             0.0039123562  -13728.064      452.77115     -13275.292    
     24000   356.66514     -33231.01       68             0.0038556553  -13735.246      449.71289     -13285.534    
     25000   355.82448     -33310.184      65             0.0036855529  -13709.118      448.65292     -13260.465    
     26000   353.18387     -33336.289      64             0.0036288521  -13719.146      445.32342     -13273.823    
     27000   350.32856     -33375.687      60             0.0034020488  -13673.112      441.7232      -13231.389    
     28000   351.78675     -33167.343      67             0.0037989545  -13739.274      443.56181     -13295.713    
     29000   353.294       -33115.281      68             0.0038556553  -13740.002      445.46228     -13294.539    
     30000   353.60757     -33367.834      66             0.0037422537  -13729.914      445.85765     -13284.057    
     31000   356.21909     -33323.506      69             0.0039123562  -13758.109      449.15047     -13308.959    
     32000   354.07834     -33189.992      69             0.0039123562  -13755.041      446.45124     -13308.59     
     33000   356.8441      -33334.251      72             0.0040824586  -13789.167      449.93854     -13339.228    
     34000   359.21706     -33398.777      72             0.0040824586  -13781.629      452.93056     -13328.699    
     35000   357.79711     -33444.11       73             0.0041391594  -13804.238      451.14016     -13353.098    
     36000   354.95268     -33578.155      71             0.0040257578  -13778.759      447.55367     -13331.205    
     37000   359.73894     -33487.81       73             0.0041391594  -13803.879      453.58859     -13350.29     
     38000   359.34717     -33237.307      73             0.0041391594  -13805.333      453.09461     -13352.239    
     39000   362.31167     -33178.599      75             0.004252561   -13831.579      456.8325      -13374.746    
     40000   366.9914      -33069.658      77             0.0043659627  -13849.752      462.73309     -13387.019    
     41000   363.86692     -33273.409      77             0.0043659627  -13852.03       458.79349     -13393.236    
     42000   360.14141     -33393.738      77             0.0043659627  -13846.155      454.09605     -13392.059    
     43000   362.23487     -33457.372      78             0.0044226635  -13862.741      456.73566     -13406.005    
     44000   368.53207     -33121.076      82             0.0046494667  -13889.043      464.6757      -13424.368    
     45000   362.65756     -33115.49       78             0.0044226635  -13869.973      457.26862     -13412.704    
     46000   366.21796     -33177.462      82             0.0046494667  -13903.875      461.75787     -13442.117    
     47000   365.78332     -33183.243      80             0.0045360651  -13891.004      461.20984     -13429.795    
     48000   370.16591     -33039.519      85             0.0048195692  -13923.516      466.73578     -13456.781    
     49000   362.09705     -33164.964      82             0.0046494667  -13902.92       456.56189     -13446.358    
     50000   359.82792     -33197.732      76             0.0043092619  -13850.553      453.70078     -13396.853    
     51000   358.15684     -33204.474      75             0.004252561   -13846.673      451.59374     -13395.079    
     52000   364.72314     -32830.088      78             0.0044226635  -13864.164      459.87308     -13404.291    
     53000   358.42515     -32770.385      76             0.0043092619  -13849.806      451.93205     -13397.874    
     54000   358.72569     -32882.527      74             0.0041958602  -13829.851      452.311       -13377.54     
     55000   356.66195     -32783.85       76             0.0043092619  -13842.159      449.70886     -13392.45     
     56000   356.26402     -32842.298      75             0.004252561   -13836.081      449.20713     -13386.874    
     57000   355.50032     -32921.388      71             0.0040257578  -13806.38       448.24418     -13358.136    
     58000   355.26017     -33050.318      71             0.0040257578  -13809.17       447.94138     -13361.229    
     59000   363.58844     -32824.939      73             0.0041391594  -13819.603      458.44236     -13361.161    
     60000   359.81232     -33028.291      75             0.004252561   -13834.441      453.68111     -13380.76     
     61000   360.77451     -32840.868      75             0.004252561   -13850.633      454.89432     -13395.738    
     62000   363.80078     -32890.915      77             0.0043659627  -13861.218      458.71009     -13402.508    
     63000   370.11079     -32617.622      86             0.00487627    -13931.527      466.66628     -13464.86     
     64000   359.53922     -32822.816      76             0.0043092619  -13858.212      453.33677     -13404.875    
     65000   362.82183     -32892.594      77             0.0043659627  -13858.536      457.47576     -13401.061    
     66000   360.75116     -32726.112      76             0.0043092619  -13852.452      454.86488     -13397.587    
     67000   362.97369     -32754.353      78             0.0044226635  -13862.011      457.66722     -13404.344    
     68000   358.22614     -32719.713      73             0.0041391594  -13825.601      451.68113     -13373.919    
     69000   362.9598      -32793.304      79             0.0044793643  -13869.596      457.64972     -13411.946    
     70000   362.40229     -32861.648      78             0.0044226635  -13874.121      456.94676     -13417.174    
     71000   361.68443     -32840.823      80             0.0045360651  -13884.517      456.04162     -13428.475    
     72000   362.55023     -32866.361      81             0.0045927659  -13885.73       457.13329     -13428.596    
     73000   356.83266     -32839.956      77             0.0043659627  -13868.969      449.92411     -13419.045    
     74000   358.54447     -32872.266      80             0.0045360651  -13885.481      452.08251     -13433.399    
     75000   359.92621     -32857.282      78             0.0044226635  -13873.452      453.82471     -13419.627    
     76000   359.6399      -32719.583      78             0.0044226635  -13882.988      453.46371     -13429.524    
     77000   361.51952     -32664.904      80             0.0045360651  -13892.645      455.83369     -13436.811    
     78000   360.51603     -32807.995      82             0.0046494667  -13916.895      454.56841     -13462.327    
     79000   363.51125     -32696.456      84             0.0047628684  -13924.74       458.34503     -13466.394    
     80000   362.08531     -32731.917      81             0.0045927659  -13912.216      456.54708     -13455.669    
     81000   360.47977     -32852.071      79             0.0044793643  -13900.523      454.52269     -13446        
     82000   359.73486     -32877.422      80             0.0045360651  -13899.006      453.58344     -13445.422    
     83000   357.85531     -32891.508      75             0.004252561   -13853.653      451.21355     -13402.439    
     84000   360.64456     -32828.012      77             0.0043659627  -13869.893      454.73047     -13415.163    
     85000   361.48221     -32824.144      76             0.0043092619  -13864.813      455.78664     -13409.026    
     86000   361.95877     -32785.207      79             0.0044793643  -13890.273      456.38754     -13433.886    
     87000   367.72898     -32798.748      85             0.0048195692  -13942.417      463.66309     -13478.753    
     88000   367.93298     -32879.292      84             0.0047628684  -13935.456      463.92031     -13471.536    
     89000   369.61014     -32830.868      84             0.0047628684  -13937.499      466.03502     -13471.464    
     90000   372.38248     -32826.793      87             0.0049329708  -13957.153      469.53061     -13487.622    
     91000   366.44197     -32844.364      85             0.0048195692  -13955.272      462.04032     -13493.231    
     92000   370.83705     -32793.429      86             0.00487627    -13959.51       467.582       -13491.928    
     93000   368.4882      -32873.138      83             0.0047061676  -13938.402      464.62038     -13473.781    
     94000   364.1438      -32791.639      82             0.0046494667  -13928.068      459.1426      -13468.926    
     95000   360.4816      -32593.456      83             0.0047061676  -13938.611      454.52499     -13484.086    
     96000   361.07539     -32522.947      85             0.0048195692  -13952.425      455.27369     -13497.152    
     97000   363.66213     -32586.095      86             0.00487627    -13956.786      458.53528     -13498.251    
     98000   360.61748     -32558.119      84             0.0047628684  -13949.522      454.69633     -13494.826    
     99000   358.72014     -32685.222      79             0.0044793643  -13902.992      452.304       -13450.688    
    100000   364.31015     -32764.448      85             0.0048195692  -13941.449      459.35234     -13482.097    
    101000   360.94892     -32723.619      82             0.0046494667  -13926.047      455.11423     -13470.933    
    102000   361.01586     -32587.078      82             0.0046494667  -13940.161      455.19864     -13484.962    
    103000   364.41662     -32738.897      87             0.0049329708  -13972.527      459.4866      -13513.04     
    104000   361.91272     -32656.997      85             0.0048195692  -13960.332      456.32947     -13504.002    
    105000   360.83043     -32696.757      86             0.00487627    -13964.728      454.96483     -13509.763    
    106000   363.32696     -32699.047      84             0.0047628684  -13940.98       458.11266     -13482.867    
    107000   363.14366     -32676.918      82             0.0046494667  -13936.566      457.88155     -13478.684    
    108000   363.8673      -32721.226      82             0.0046494667  -13929.281      458.79396     -13470.487    
    109000   360.18178     -32734.529      81             0.0045927659  -13927.192      454.14695     -13473.045    
    110000   359.87089     -32877.138      82             0.0046494667  -13924.727      453.75496     -13470.972    
Loop time of 1350.99 on 20 procs for 100000 steps with 670 atoms

Performance: 6.395 ns/day, 3.753 hours/ns, 74.020 timesteps/s, 49.593 katom-step/s
100.0% CPU use with 20 MPI tasks x no OpenMP threads

MPI task timing breakdown:
Section |  min time  |  avg time  |  max time  |%varavg| %total
---------------------------------------------------------------
Pair    | 1.6152     | 5.2991     | 9.2969     |  91.2 |  0.39
Bond    | 0.065605   | 0.38993    | 0.80761    |  33.1 |  0.03
Kspace  | 12.362     | 16.655     | 20.418     |  53.3 |  1.23
Neigh   | 0.79994    | 0.82365    | 0.83724    |   1.1 |  0.06
Comm    | 6.4366     | 6.8162     | 7.2619     |   8.4 |  0.50
Output  | 0.079674   | 0.12935    | 0.16768    |   7.2 |  0.01
Modify  | 1320.2     | 1320.3     | 1320.3     |   0.1 | 97.73
Other   |            | 0.6183     |            |       |  0.05

Nlocal:           33.5 ave          56 max          13 min
Histogram: 3 1 2 4 1 1 3 1 3 1
Nghost:         2353.9 ave        2512 max        2172 min
Histogram: 6 2 0 0 0 0 0 4 4 4
Neighs:         7007.4 ave       11730 max        2777 min
Histogram: 3 1 2 4 1 1 3 2 2 1

Total # of neighbors = 140148
Ave neighs/atom = 209.17612
Ave special neighs/atom = 8.9253731
Neighbor list builds = 1001992
Dangerous builds = 0

# --- Завершение ---
print "GCMC simulation finished." 
GCMC simulation finished.
Total wall time: 0:22:33
