LAMMPS (29 Aug 2024 - Update 2)
# LAMMPS input script for GCMC simulation of CO2 in MOF-5

variable press equal ${p}
variable press equal 5.0

# --- Инициализация ---
units           real
atom_style      full
boundary        p p p

# --- Определение стилей потенциалов ---
# Важно: эти стили должны соответствовать формату коэффициентов в data.MOF5_charged_simple
# и добавленным коэффициентам для CO2.
pair_style      lj/cut/coul/long 12.0 # Катофф 12 Ангстрем для LJ и кулона
bond_style      harmonic
angle_style     hybrid fourier cosine/periodic harmonic # MOF-5 использует fourier и cosine/periodic, CO2 - harmonic
dihedral_style  harmonic # Предполагаем, что диэдрали в MOF-5 совместимы с harmonic (K d n)
improper_style  fourier # Предполагаем, что несобственные углы в MOF-5 совместимы с umbrella (K chi0)

# --- Чтение данных MOF-5 ---
# Добавляем 2 новых типа атомов (для C и O в CO2), 1 новый тип связи (C=O), 1 новый тип угла (O=C=O)
read_data       data.MOF5_charged_simple extra/atom/types 2 extra/bond/types 1 extra/angle/types 1
Reading data file ...
  triclinic box = (0 0 0) to (26.029363 26.031584 26.028346) with tilt (0.003152 -0.002169 0.002663)
  2 by 5 by 2 MPI processor grid
  reading atoms ...
  424 atoms
  scanning bonds ...
  4 = max bonds/atom
  scanning angles ...
  6 = max angles/atom
  scanning dihedrals ...
  8 = max dihedrals/atom
  scanning impropers ...
  3 = max impropers/atom
  triclinic box = (0 0 0) to (26.029363 26.031584 26.028346) with tilt (0.003152 -0.002169 0.002663)
  2 by 5 by 2 MPI processor grid
  reading bonds ...
  512 bonds
  reading angles ...
  912 angles
  reading dihedrals ...
  960 dihedrals
  reading impropers ...
  576 impropers
Finding 1-2 1-3 1-4 neighbors ...
  special bond factors lj:    0        0        0       
  special bond factors coul:  0        0        0       
     4 = max # of 1-2 neighbors
    12 = max # of 1-3 neighbors
    24 = max # of 1-4 neighbors
    22 = max # of special neighbors
  special bonds CPU = 0.001 seconds
  read_data CPU = 0.017 seconds

# --- Определение параметров для CO2 ---
# Массы для новых типов атомов (6: C_CO2, 7: O_CO2)
mass            6 12.011   # C in CO2
mass            7 15.9994  # O in CO2

# Pair Coeffs для CO2 (MOF-5 pair_coeffs читаются из data-файла)
# pair_coeff I J epsilon sigma
pair_coeff      6 6 0.0514 2.85    # C_CO2 - C_CO2
pair_coeff      7 7 0.1600 3.02    # O_CO2 - O_CO2

# Правила смешивания для межмолекулярных взаимодействий (например, MOF-CO2)
# Lorentz-Berthelot по умолчанию для lj/cut/coul/long
pair_modify     mix arithmetic

# Bond Coeffs для CO2 (тип связи 7)
# bond_coeff Type K r0
bond_coeff      7 1000.0 1.16   # C=O

# Angle Coeffs для CO2 (тип угла 10)
# angle_coeff Type K theta0 (для стиля harmonic)
angle_coeff     10 harmonic 100.0 180.0 # O=C=O

# --- Настройки дальнодействующих взаимодействий ---
kspace_style    pppm 1.0e-5

# --- Определение молекулы CO2 ---
molecule        co2mol CO2.txt
Read molecule template co2mol:
# CO2 molecule template for LAMMPS
  1 molecules
  0 fragments
  3 atoms with max type 7
  2 bonds with max type 7
  1 angles with max type 10
  0 dihedrals with max type 0
  0 impropers with max type 0

# --- Настройки GCMC ---
variable        T equal 298.0       # Температура в Кельвинах
variable        P equal 0.1         # Давление в атмосферах
variable        fug_coeff equal 1.0 # Коэффициент фугитивности (для идеального газа = 1.0)
variable        seed equal 12345    # Начальное число для генератора случайных чисел

# Группа для атомов CO2 (типы 6 и 7)
group           co2_atoms type 6 7
0 atoms in group co2_atoms


# Variables for analysis
variable N_co2  equal count(co2_atoms)/3
variable ads_density equal v_N_co2/vol

dump            dall all atom 100 dumps_T298K/dump_npt_${press}.lammpstrj
dump            dall all atom 100 dumps_T298K/dump_npt_5.lammpstrj

fix             mynpt all nvt temp 298.0 298.0 100.0

# Thermo output
thermo          100
thermo_style    custom step temp press vol density etotal
run             10000
PPPM initialization ...
WARNING: System is not charge neutral, net charge = 0.0008 (../kspace.cpp:327)
  using 12-bit tables for long-range coulomb (../kspace.cpp:342)
  G vector (1/distance) = 0.2438405
  grid = 16 16 16
  stencil order = 5
  estimated absolute RMS force accuracy = 0.002249822
  estimated relative force accuracy = 6.7752721e-06
  using double precision KISS FFT
  3d grid and FFT values/proc = 2250 256
Generated 21 of 21 mixed pair_coeff terms from arithmetic mixing rule
Neighbor list info ...
  update: every = 1 steps, delay = 0 steps, check = yes
  max neighbors/atom: 2000, page size: 100000
  master list distance cutoff = 14
  ghost atom cutoff = 14
  binsize = 7, bins = 4 4 4
  1 neighbor lists, perpetual/occasional/extra = 1 0 0
  (1) pair lj/cut/coul/long, perpetual
      attributes: half, newton on
      pair build: half/bin/newton/tri
      stencil: half/bin/3d/tri
      bin: standard
WARNING: Inconsistent image flags (../domain.cpp:1051)
Per MPI rank memory allocation (min/avg/max) = 13.24 | 13.45 | 13.94 Mbytes
   Step          Temp          Press          Volume        Density         TotEng    
         0   0             -31876.762      17636.431      0.57988585    -12893.244    
       100   213.49407     -30002.093      17636.431      0.57988585    -12860.54     
       200   272.54824     -36267.945      17636.431      0.57988585    -12824.296    
       300   247.31771     -30813.89       17636.431      0.57988585    -12791.181    
       400   365.44045     -40200.501      17636.431      0.57988585    -12758.574    
       500   390.04847     -35283.076      17636.431      0.57988585    -12765.465    
       600   405.37642     -31390.924      17636.431      0.57988585    -12761.03     
       700   316.23977     -25622.144      17636.431      0.57988585    -12783.716    
       800   416.25121     -28441.627      17636.431      0.57988585    -12783.932    
       900   355.94793     -31932.299      17636.431      0.57988585    -12779.66     
      1000   253.89126     -30645.299      17636.431      0.57988585    -12780.656    
      1100   311.85955     -33842.993      17636.431      0.57988585    -12769.096    
      1200   172.21309     -29210.083      17636.431      0.57988585    -12774.23     
      1300   261.17774     -32908.143      17636.431      0.57988585    -12765.851    
      1400   193.05251     -27679.149      17636.431      0.57988585    -12769.79     
      1500   261.28539     -30414.605      17636.431      0.57988585    -12778.365    
      1600   322.4943      -22538.194      17636.431      0.57988585    -12769.35     
      1700   351.52921     -35417.481      17636.431      0.57988585    -12780.339    
      1800   365.10559     -34711.255      17636.431      0.57988585    -12769.334    
      1900   380.46949     -35845.467      17636.431      0.57988585    -12784.654    
      2000   326.48505     -30493.599      17636.431      0.57988585    -12767.625    
      2100   327.2667      -34072.111      17636.431      0.57988585    -12766.415    
      2200   310.6237      -31475.195      17636.431      0.57988585    -12762.71     
      2300   323.90534     -31915.316      17636.431      0.57988585    -12777.829    
      2400   218.01193     -32678.623      17636.431      0.57988585    -12802.822    
      2500   283.32791     -32596.566      17636.431      0.57988585    -12796.599    
      2600   290.23107     -37572.147      17636.431      0.57988585    -12766.401    
      2700   217.0785      -34562.789      17636.431      0.57988585    -12765.55     
      2800   307.10256     -33607.205      17636.431      0.57988585    -12758.686    
      2900   325.65223     -27852.054      17636.431      0.57988585    -12779.106    
      3000   255.06952     -36026.211      17636.431      0.57988585    -12783.72     
      3100   286.03547     -27519.889      17636.431      0.57988585    -12781.688    
      3200   249.3152      -33250.849      17636.431      0.57988585    -12782.257    
      3300   298.10348     -31548.866      17636.431      0.57988585    -12766.102    
      3400   228.61736     -38024.621      17636.431      0.57988585    -12776.664    
      3500   268.22819     -33045.255      17636.431      0.57988585    -12774.557    
      3600   274.34868     -34273.869      17636.431      0.57988585    -12784.251    
      3700   292.16291     -27342.856      17636.431      0.57988585    -12762.182    
      3800   357.24661     -33896.769      17636.431      0.57988585    -12727.1      
      3900   296.14003     -36081.391      17636.431      0.57988585    -12731.996    
      4000   305.60276     -32084.417      17636.431      0.57988585    -12757.308    
      4100   285.13207     -31298.873      17636.431      0.57988585    -12765.421    
      4200   266.44121     -35148.038      17636.431      0.57988585    -12776.657    
      4300   314.49262     -35278.125      17636.431      0.57988585    -12780.243    
      4400   265.00839     -28621.045      17636.431      0.57988585    -12787.452    
      4500   299.4861      -32478.362      17636.431      0.57988585    -12764.908    
      4600   263.60023     -31394.134      17636.431      0.57988585    -12748.302    
      4700   270.80344     -35371.467      17636.431      0.57988585    -12741.608    
      4800   304.95215     -32544.717      17636.431      0.57988585    -12767.227    
      4900   236.24084     -37231.923      17636.431      0.57988585    -12781.899    
      5000   328.68536     -29248.715      17636.431      0.57988585    -12775.562    
      5100   272.48929     -34187.864      17636.431      0.57988585    -12781.881    
      5200   334.10832     -31585.391      17636.431      0.57988585    -12765.856    
      5300   318.57669     -34075.112      17636.431      0.57988585    -12753.698    
      5400   292.32442     -31301.05       17636.431      0.57988585    -12744.504    
      5500   314.87173     -35501.043      17636.431      0.57988585    -12769.136    
      5600   266.88685     -33302.918      17636.431      0.57988585    -12797.694    
      5700   323.94523     -33205.95       17636.431      0.57988585    -12790.478    
      5800   237.61382     -33798.19       17636.431      0.57988585    -12774.329    
      5900   332.54463     -32095.803      17636.431      0.57988585    -12761.904    
      6000   281.28815     -32730.647      17636.431      0.57988585    -12755.646    
      6100   293.70692     -32443.841      17636.431      0.57988585    -12794.791    
      6200   256.1666      -37397.202      17636.431      0.57988585    -12810.738    
      6300   265.37933     -33025.188      17636.431      0.57988585    -12799.324    
      6400   214.60104     -34052.631      17636.431      0.57988585    -12772.706    
      6500   298.02802     -31170.353      17636.431      0.57988585    -12764.77     
      6600   231.58585     -36267.522      17636.431      0.57988585    -12773.825    
      6700   253.48993     -31217.406      17636.431      0.57988585    -12788.31     
      6800   269.8179      -33268.514      17636.431      0.57988585    -12819.231    
      6900   247.47577     -32728.583      17636.431      0.57988585    -12816.453    
      7000   301.42123     -36271.898      17636.431      0.57988585    -12771.54     
      7100   286.51969     -31797.369      17636.431      0.57988585    -12772.745    
      7200   325.68605     -34234.769      17636.431      0.57988585    -12761.944    
      7300   289.75481     -31579.728      17636.431      0.57988585    -12775.933    
      7400   333.21283     -31387.144      17636.431      0.57988585    -12791.817    
      7500   290.84493     -31676.643      17636.431      0.57988585    -12805.174    
      7600   311.61123     -34178.555      17636.431      0.57988585    -12795.916    
      7700   345.15849     -33083.813      17636.431      0.57988585    -12759.225    
      7800   308.70421     -34202.632      17636.431      0.57988585    -12754.992    
      7900   300.443       -32515.415      17636.431      0.57988585    -12771.349    
      8000   288.06005     -29540.264      17636.431      0.57988585    -12793.239    
      8100   257.29593     -32244.292      17636.431      0.57988585    -12804.199    
      8200   261.11901     -30302.229      17636.431      0.57988585    -12762.247    
      8300   319.15831     -35566.253      17636.431      0.57988585    -12739.472    
      8400   266.209       -31748.322      17636.431      0.57988585    -12758.946    
      8500   325.11198     -34102.356      17636.431      0.57988585    -12777.883    
      8600   288.23561     -31735.927      17636.431      0.57988585    -12790.45     
      8700   347.97179     -32997.755      17636.431      0.57988585    -12780        
      8800   344.56461     -27208.14       17636.431      0.57988585    -12758.036    
      8900   300.63989     -32695.532      17636.431      0.57988585    -12735.488    
      9000   355.69934     -30869.155      17636.431      0.57988585    -12751.16     
      9100   261.38108     -35319.901      17636.431      0.57988585    -12784.849    
      9200   291.93206     -33252.701      17636.431      0.57988585    -12786.072    
      9300   300.47813     -34530.667      17636.431      0.57988585    -12783.064    
      9400   298.40506     -30948.28       17636.431      0.57988585    -12764.678    
      9500   318.90473     -33394.735      17636.431      0.57988585    -12740.765    
      9600   277.98143     -30349.893      17636.431      0.57988585    -12734.144    
      9700   291.53667     -32042.773      17636.431      0.57988585    -12772.109    
      9800   247.75586     -31428.873      17636.431      0.57988585    -12795.129    
      9900   266.28646     -36110.545      17636.431      0.57988585    -12788.713    
     10000   257.51625     -34632.253      17636.431      0.57988585    -12766.387    
Loop time of 2.44615 on 20 procs for 10000 steps with 424 atoms

Performance: 353.208 ns/day, 0.068 hours/ns, 4088.059 timesteps/s, 1.733 Matom-step/s
99.9% CPU use with 20 MPI tasks x no OpenMP threads

MPI task timing breakdown:
Section |  min time  |  avg time  |  max time  |%varavg| %total
---------------------------------------------------------------
Pair    | 0.019057   | 0.19205    | 0.43202    |  29.4 |  7.85
Bond    | 0.006223   | 0.03595    | 0.070009   |  10.5 |  1.47
Kspace  | 1.2463     | 1.4734     | 1.6705     |  11.1 | 60.23
Neigh   | 0.01921    | 0.020152   | 0.021331   |   0.4 |  0.82
Comm    | 0.60484    | 0.63704    | 0.67249    |   2.6 | 26.04
Output  | 0.0049358  | 0.0078199  | 0.010633   |   2.0 |  0.32
Modify  | 0.018422   | 0.032643   | 0.044673   |   4.0 |  1.33
Other   |            | 0.0471     |            |       |  1.93

Nlocal:           21.2 ave          38 max           2 min
Histogram: 4 3 1 0 0 3 1 0 1 7
Nghost:        1620.65 ave        1749 max        1445 min
Histogram: 8 0 0 0 0 0 0 0 4 8
Neighs:        2667.55 ave        4830 max         261 min
Histogram: 4 3 1 0 2 1 1 0 2 6

Total # of neighbors = 53351
Ave neighs/atom = 125.82783
Ave special neighs/atom = 12.943396
Neighbor list builds = 59
Dangerous builds = 0
unfix           mynpt


# Fix GCMC
# N: выполнять GCMC каждые N шагов
# Nexchange: количество попыток обмена (вставка/удаление)
# Ntranslate_rotate_mol: количество попыток трансляции/вращения молекулы
# Nrigidbody_... : 0, так как CO2 у нас гибкий
# mol co2mol: используемый шаблон молекулы
# full_energy: пересчитывать полную энергию системы (рекомендуется)
# pressure ${P}: давление (LAMMPS вычислит химический потенциал)
# displace: максимальное смещение для трансляции молекулы (в Ангстремах)
#fix             gcmc_run all gcmc 100 100 100 0 ${seed} ${T} ${P} ${fug_coeff} mol co2mol full_energy displace 0.5
fix             GCMC co2_atoms gcmc 100 1000 0 0 12345 298.0 -5.0 0.5 mol co2mol pressure ${press} full_energy group co2_atoms
fix             GCMC co2_atoms gcmc 100 1000 0 0 12345 298.0 -5.0 0.5 mol co2mol pressure 5 full_energy group co2_atoms

# --- Настройки вывода ---
#thermo_style    custom step temp press pe etotal natoms ncmc_insert ncmc_delete ncmc_trans ncmc_rotate ncmc_attempt ncmc_accept atoms_in_gcmc_mol


thermo          1000
thermo_style    custom step temp press v_N_co2 v_ads_density pe ke etotal
dump            gcmc_dump all atom 500 dumps_T298K/dump.gcmc_mof5_co2_${press}.lammpstrj
dump            gcmc_dump all atom 500 dumps_T298K/dump.gcmc_mof5_co2_5.lammpstrj

# --- Запуск симуляции ---
# Для GCMC обычно не нужен MD integrator для всей системы, если только не изучается динамика каркаса.
# Если каркас должен быть подвижен, добавьте fix nvt для атомов MOF-5.
# Например, если атомы MOF-5 должны оставаться фиксированными:
# group mof_atoms type <= 5
# fix freeze_mof mof_atoms setforce 0.0 0.0 0.0
# Однако, для GCMC лучше, чтобы каркас был термостатирован, если он не абсолютно жесткий.
# Если вы хотите просто провести GCMC без MD шагов для каркаса:
# run 0 post no # Это позволит fix gcmc работать без MD шагов
# Но обычно GCMC совмещают с MD:
timestep        1.0 # фемтосекунды (если есть MD)
run             100000 # Количество шагов GCMC/MD
WARNING: No fixes with time integration, atoms won't move (../verlet.cpp:60)
PPPM initialization ...
  using 12-bit tables for long-range coulomb (../kspace.cpp:342)
  G vector (1/distance) = 0.2438405
  grid = 16 16 16
  stencil order = 5
  estimated absolute RMS force accuracy = 0.002249822
  estimated relative force accuracy = 6.7752721e-06
  using double precision KISS FFT
  3d grid and FFT values/proc = 2250 256
Generated 21 of 21 mixed pair_coeff terms from arithmetic mixing rule
0 atoms in group FixGCMC:gcmc_exclusion_group:GCMC
0 atoms in group FixGCMC:rotation_gas_atoms:GCMC
WARNING: Neighbor exclusions used with KSpace solver may give inconsistent Coulombic energies (../neighbor.cpp:666)
WARNING: Inconsistent image flags (../domain.cpp:1051)
Per MPI rank memory allocation (min/avg/max) = 14.24 | 14.46 | 14.93 Mbytes
   Step          Temp          Press         v_N_co2     v_ads_density      PotEng         KinEng         TotEng    
     10000   257.51625     -34632.253      0              0             -13091.084      324.69777     -12766.387    
     11000   329.08753     -34474.772      101            0.0057267822  -13679.805      414.94076     -13264.865    
     12000   339.63476     -34307.831      119            0.0067473969  -13796.242      428.23958     -13368.002    
     13000   352.15478     -34027.179      129            0.007314405   -13866.012      444.02585     -13421.986    
     14000   358.14655     -33683.963      136            0.0077113107  -13916.444      451.58077     -13464.864    
     15000   357.52842     -33402.733      140            0.007938114   -13953.314      450.80138     -13502.512    
     16000   356.55693     -33457.821      137            0.0077680115  -13960.374      449.57644     -13510.798    
     17000   358.71948     -33437.296      141            0.0079948148  -13984.289      452.30317     -13531.986    
     18000   358.51185     -33275.962      138            0.0078247123  -13979.933      452.04137     -13527.892    
     19000   357.3023      -33411.598      142            0.0080515156  -13998.103      450.51627     -13547.586    
     20000   362.2765      -33265.57       144            0.0081649172  -14029.972      456.78815     -13573.184    
     21000   369.21639     -33080.92       146            0.0082783188  -14043.047      465.53854     -13577.509    
     22000   365.11123     -33461.137      143            0.0081082164  -14030.361      460.36241     -13569.999    
     23000   369.83865     -33172.122      150            0.0085051221  -14066.261      466.32314     -13599.938    
     24000   367.29826     -33109.096      154            0.0087319253  -14091.639      463.12001     -13628.519    
     25000   367.28593     -33534.295      151            0.0085618229  -14079.293      463.10446     -13616.188    
     26000   371.39457     -33084.76       153            0.0086752245  -14102.214      468.28498     -13633.929    
     27000   366.52809     -33051.886      147            0.0083350197  -14076.915      462.1489      -13614.766    
     28000   370.08332     -33065.118      153            0.0086752245  -14105.234      466.63163     -13638.603    
     29000   380.81168     -32447.81       160            0.0090721302  -14163.03       480.15884     -13682.871    
     30000   377.96917     -32460.114      163            0.0092422327  -14191.914      476.57477     -13715.339    
     31000   371.78362     -32603.121      155            0.0087886262  -14149.903      468.77551     -13681.128    
     32000   374.0056      -32500.699      158            0.0089587286  -14168.768      471.57717     -13697.191    
     33000   376.66695     -32549.983      160            0.0090721302  -14180.421      474.93283     -13705.488    
     34000   380.514       -32704.485      162            0.0091855319  -14177.627      479.7835      -13697.844    
     35000   381.97566     -32609.191      165            0.0093556343  -14208.8        481.62649     -13727.174    
     36000   378.7386      -32604.064      161            0.009128831   -14209.098      477.54493     -13731.553    
     37000   382.61941     -32668.506      164            0.0092989335  -14227.264      482.43817     -13744.825    
     38000   381.78642     -32634.338      165            0.0093556343  -14233.594      481.38787     -13752.206    
     39000   389.71381     -32645.917      168            0.0095257367  -14244.088      491.38339     -13752.704    
     40000   386.67872     -32655.408      169            0.0095824376  -14253.268      487.55648     -13765.711    
     41000   389.53333     -32683.379      168            0.0095257367  -14249.175      491.15581     -13758.02     
     42000   392.89575     -32753.046      169            0.0095824376  -14251.291      495.39543     -13755.896    
     43000   392.13546     -32756.719      168            0.0095257367  -14258.385      494.4368      -13763.948    
     44000   387.22663     -32562.151      170            0.0096391384  -14272.764      488.24734     -13784.516    
     45000   396.44563     -32359.934      175            0.0099226424  -14298.658      499.87142     -13798.786    
     46000   392.40537     -32194.18       172            0.00975254    -14285.859      494.77712     -13791.082    
     47000   390.84472     -32380.36       172            0.00975254    -14284.327      492.80933     -13791.518    
     48000   390.45137     -32229.493      169            0.0095824376  -14268.674      492.31336     -13776.361    
     49000   384.79599     -32351.094      162            0.0091855319  -14226.527      485.18259     -13741.345    
     50000   390.21533     -32445.913      168            0.0095257367  -14256.764      492.01574     -13764.748    
     51000   386.83983     -32310.557      165            0.0093556343  -14242.449      487.75963     -13754.689    
     52000   389.50785     -32276.472      169            0.0095824376  -14272.876      491.12369     -13781.753    
     53000   393.23618     -32403.07       171            0.0096958392  -14279.69       495.82468     -13783.866    
     54000   390.39129     -32299.025      167            0.0094690359  -14262.618      492.23761     -13770.38     
     55000   393.84694     -32129.637      166            0.0094123351  -14261.095      496.59477     -13764.501    
     56000   395.45103     -32159.364      170            0.0096391384  -14290.642      498.61735     -13792.025    
     57000   395.6021      -32160.23       172            0.00975254    -14298.731      498.80782     -13799.923    
     58000   392.23663     -32056.911      171            0.0096958392  -14302.943      494.56437     -13808.379    
     59000   402.30287     -32068.163      177            0.010036044   -14335.524      507.25671     -13828.267    
     60000   403.74437     -32119.137      177            0.010036044   -14337.749      509.07427     -13828.675    
     61000   396.97627     -32056.46       174            0.0098659416  -14324.381      500.54049     -13823.84     
     62000   392.83873     -32028.209      169            0.0095824376  -14295.095      495.32354     -13799.772    
     63000   397.91758     -31990.711      175            0.0099226424  -14324.994      501.72737     -13823.266    
     64000   390.61848     -31772.893      170            0.0096391384  -14295.01       492.52407     -13802.486    
     65000   391.14574     -31882.108      173            0.0098092408  -14317.779      493.18887     -13824.591    
     66000   390.89051     -31929.994      174            0.0098659416  -14332.163      492.86706     -13839.296    
     67000   393.84083     -31956.131      174            0.0098659416  -14326.825      496.58707     -13830.238    
     68000   385.69154     -32132.408      170            0.0096391384  -14306.263      486.31177     -13819.951    
     69000   390.72757     -32073.766      177            0.010036044   -14340.551      492.66162     -13847.889    
     70000   396.31372     -32046.731      178            0.010092745   -14351.37       499.70509     -13851.665    
     71000   389.95759     -32171.912      172            0.00975254    -14321.621      491.69075     -13829.93     
     72000   391.10335     -32208.063      179            0.010149446   -14363.227      493.13543     -13870.092    
     73000   389.63125     -32157.383      178            0.010092745   -14361.016      491.27929     -13869.737    
     74000   390.67939     -31848.949      178            0.010092745   -14350.394      492.60086     -13857.793    
     75000   394.0649      -32171.012      181            0.010262847   -14373.476      496.86959     -13876.606    
     76000   390.85118     -32097.813      180            0.010206147   -14370.939      492.81747     -13878.122    
     77000   390.14004     -32062.569      181            0.010262847   -14379.491      491.92081     -13887.57     
     78000   391.52218     -32046.136      183            0.010376249   -14384.282      493.66352     -13890.619    
     79000   390.42835     -32107.677      182            0.010319548   -14379.098      492.28434     -13886.813    
     80000   388.15585     -32134.038      178            0.010092745   -14361.265      489.41897     -13871.846    
     81000   391.76764     -32038.595      183            0.010376249   -14387.426      493.97302     -13893.453    
     82000   390.79824     -32231.845      182            0.010319548   -14375.205      492.75071     -13882.454    
     83000   390.97763     -32036.644      182            0.010319548   -14374.648      492.97691     -13881.671    
     84000   388.95696     -32128.975      177            0.010036044   -14351.419      490.42908     -13860.99     
     85000   393.43147     -32055.422      182            0.010319548   -14381.701      496.07091     -13885.63     
     86000   393.19148     -32140.039      178            0.010092745   -14356.521      495.76831     -13860.753    
     87000   388.50418     -32260.279      176            0.0099793433  -14348.653      489.85818     -13858.795    
     88000   388.5779      -32192.323      177            0.010036044   -14354.242      489.95113     -13864.291    
     89000   387.70396     -32306.041      176            0.0099793433  -14347.57       488.84919     -13858.721    
     90000   390.8021      -32347.313      177            0.010036044   -14349.353      492.75559     -13856.597    
     91000   391.52187     -32195.39       178            0.010092745   -14363.037      493.66313     -13869.374    
     92000   393.40744     -32012.837      178            0.010092745   -14361.853      496.04062     -13865.812    
     93000   394.49822     -32066.24       179            0.010149446   -14367.862      497.41597     -13870.446    
     94000   386.724       -32174.76       173            0.0098092408  -14337.954      487.61358     -13850.341    
     95000   388.36436     -32059.069      175            0.0099226424  -14347.06       489.68189     -13857.378    
     96000   390.43198     -31992.819      177            0.010036044   -14358.775      492.28891     -13866.486    
     97000   394.37461     -31929.444      180            0.010206147   -14377.639      497.26011     -13880.379    
     98000   389.23898     -32119.014      176            0.0099793433  -14360.781      490.78468     -13869.996    
     99000   385.12199     -32337.015      172            0.00975254    -14335.617      485.59364     -13850.023    
    100000   388.15227     -32290.98       175            0.0099226424  -14347.274      489.41447     -13857.859    
    101000   394.21567     -32197.399      180            0.010206147   -14378.71       497.0597      -13881.65     
    102000   387.55415     -32177.474      177            0.010036044   -14372.138      488.6603      -13883.477    
    103000   384.26333     -32097.801      175            0.0099226424  -14354.692      484.51096     -13870.181    
    104000   386.32057     -32167.175      176            0.0099793433  -14359.069      487.1049      -13871.964    
    105000   387.64978     -32196.061      173            0.0098092408  -14346.989      488.78088     -13858.208    
    106000   385.53885     -32368.325      172            0.00975254    -14341.861      486.11924     -13855.742    
    107000   388.35515     -32366.611      172            0.00975254    -14343.427      489.67027     -13853.756    
    108000   390.50179     -32151.315      176            0.0099793433  -14364.658      492.37693     -13872.281    
    109000   388.07073     -32255.926      172            0.00975254    -14342.719      489.31165     -13853.407    
    110000   389.1255      -32283.732      170            0.0096391384  -14337.779      490.6416      -13847.138    
Loop time of 2068.89 on 20 procs for 100000 steps with 934 atoms

Performance: 4.176 ns/day, 5.747 hours/ns, 48.335 timesteps/s, 45.145 katom-step/s
100.0% CPU use with 20 MPI tasks x no OpenMP threads

MPI task timing breakdown:
Section |  min time  |  avg time  |  max time  |%varavg| %total
---------------------------------------------------------------
Pair    | 6.2633     | 11.197     | 16.936     |  87.8 |  0.54
Bond    | 0.060987   | 0.41119    | 0.73392    |  26.0 |  0.02
Kspace  | 13.258     | 18.833     | 24.228     |  67.7 |  0.91
Neigh   | 1.2536     | 1.281      | 1.3227     |   1.6 |  0.06
Comm    | 9.5154     | 10.588     | 11.139     |  12.7 |  0.51
Output  | 0.09084    | 0.15881    | 0.20278    |   7.7 |  0.01
Modify  | 2025.7     | 2025.7     | 2025.8     |   0.1 | 97.91
Other   |            | 0.7291     |            |       |  0.04

Nlocal:           46.7 ave          61 max          31 min
Histogram: 1 1 1 5 2 2 1 3 3 1
Nghost:        3139.95 ave        3274 max        2995 min
Histogram: 6 2 0 0 0 0 1 4 6 1
Neighs:          14088 ave       18485 max        9381 min
Histogram: 1 1 1 5 2 2 1 4 2 1

Total # of neighbors = 281759
Ave neighs/atom = 301.66916
Ave special neighs/atom = 6.9678801
Neighbor list builds = 1001992
Dangerous builds = 0

# --- Завершение ---
print "GCMC simulation finished." 
GCMC simulation finished.
Total wall time: 0:34:31
