LAMMPS (29 Aug 2024 - Update 2)
# LAMMPS input script for GCMC simulation of CO2 in MOF-5

variable press equal ${p}
variable press equal 0.5

# --- Инициализация ---
units           real
atom_style      full
boundary        p p p

# --- Определение стилей потенциалов ---
# Важно: эти стили должны соответствовать формату коэффициентов в data.MOF5_charged_simple
# и добавленным коэффициентам для CO2.
pair_style      lj/cut/coul/long 12.0 # Катофф 12 Ангстрем для LJ и кулона
bond_style      harmonic
angle_style     hybrid fourier cosine/periodic harmonic # MOF-5 использует fourier и cosine/periodic, CO2 - harmonic
dihedral_style  harmonic # Предполагаем, что диэдрали в MOF-5 совместимы с harmonic (K d n)
improper_style  fourier # Предполагаем, что несобственные углы в MOF-5 совместимы с umbrella (K chi0)

# --- Чтение данных MOF-5 ---
# Добавляем 2 новых типа атомов (для C и O в CO2), 1 новый тип связи (C=O), 1 новый тип угла (O=C=O)
read_data       data.MOF5_charged_simple extra/atom/types 2 extra/bond/types 1 extra/angle/types 1
Reading data file ...
  triclinic box = (0 0 0) to (26.029363 26.031584 26.028346) with tilt (0.003152 -0.002169 0.002663)
  2 by 5 by 2 MPI processor grid
  reading atoms ...
  424 atoms
  scanning bonds ...
  4 = max bonds/atom
  scanning angles ...
  6 = max angles/atom
  scanning dihedrals ...
  8 = max dihedrals/atom
  scanning impropers ...
  3 = max impropers/atom
  triclinic box = (0 0 0) to (26.029363 26.031584 26.028346) with tilt (0.003152 -0.002169 0.002663)
  2 by 5 by 2 MPI processor grid
  reading bonds ...
  512 bonds
  reading angles ...
  912 angles
  reading dihedrals ...
  960 dihedrals
  reading impropers ...
  576 impropers
Finding 1-2 1-3 1-4 neighbors ...
  special bond factors lj:    0        0        0       
  special bond factors coul:  0        0        0       
     4 = max # of 1-2 neighbors
    12 = max # of 1-3 neighbors
    24 = max # of 1-4 neighbors
    22 = max # of special neighbors
  special bonds CPU = 0.003 seconds
  read_data CPU = 0.020 seconds

# --- Определение параметров для CO2 ---
# Массы для новых типов атомов (6: C_CO2, 7: O_CO2)
mass            6 12.011   # C in CO2
mass            7 15.9994  # O in CO2

# Pair Coeffs для CO2 (MOF-5 pair_coeffs читаются из data-файла)
# pair_coeff I J epsilon sigma
pair_coeff      6 6 0.0514 2.85    # C_CO2 - C_CO2
pair_coeff      7 7 0.1600 3.02    # O_CO2 - O_CO2

# Правила смешивания для межмолекулярных взаимодействий (например, MOF-CO2)
# Lorentz-Berthelot по умолчанию для lj/cut/coul/long
pair_modify     mix arithmetic

# Bond Coeffs для CO2 (тип связи 7)
# bond_coeff Type K r0
bond_coeff      7 1000.0 1.16   # C=O

# Angle Coeffs для CO2 (тип угла 10)
# angle_coeff Type K theta0 (для стиля harmonic)
angle_coeff     10 harmonic 100.0 180.0 # O=C=O

# --- Настройки дальнодействующих взаимодействий ---
kspace_style    pppm 1.0e-5

# --- Определение молекулы CO2 ---
molecule        co2mol CO2.txt
Read molecule template co2mol:
# CO2 molecule template for LAMMPS
  1 molecules
  0 fragments
  3 atoms with max type 7
  2 bonds with max type 7
  1 angles with max type 10
  0 dihedrals with max type 0
  0 impropers with max type 0

# --- Настройки GCMC ---
variable        T equal 298.0       # Температура в Кельвинах
variable        P equal 0.1         # Давление в атмосферах
variable        fug_coeff equal 1.0 # Коэффициент фугитивности (для идеального газа = 1.0)
variable        seed equal 12345    # Начальное число для генератора случайных чисел

# Группа для атомов CO2 (типы 6 и 7)
group           co2_atoms type 6 7
0 atoms in group co2_atoms


# Variables for analysis
variable N_co2  equal count(co2_atoms)/3
variable ads_density equal v_N_co2/vol

dump            dall all atom 100 dumps_T298K/dump_npt_${press}.lammpstrj
dump            dall all atom 100 dumps_T298K/dump_npt_0.5.lammpstrj

fix             mynpt all nvt temp 298.0 298.0 100.0

# Thermo output
thermo          100
thermo_style    custom step temp press vol density etotal
run             10000
PPPM initialization ...
WARNING: System is not charge neutral, net charge = 0.0008 (../kspace.cpp:327)
  using 12-bit tables for long-range coulomb (../kspace.cpp:342)
  G vector (1/distance) = 0.2438405
  grid = 16 16 16
  stencil order = 5
  estimated absolute RMS force accuracy = 0.002249822
  estimated relative force accuracy = 6.7752721e-06
  using double precision KISS FFT
  3d grid and FFT values/proc = 2250 256
Generated 21 of 21 mixed pair_coeff terms from arithmetic mixing rule
Neighbor list info ...
  update: every = 1 steps, delay = 0 steps, check = yes
  max neighbors/atom: 2000, page size: 100000
  master list distance cutoff = 14
  ghost atom cutoff = 14
  binsize = 7, bins = 4 4 4
  1 neighbor lists, perpetual/occasional/extra = 1 0 0
  (1) pair lj/cut/coul/long, perpetual
      attributes: half, newton on
      pair build: half/bin/newton/tri
      stencil: half/bin/3d/tri
      bin: standard
WARNING: Inconsistent image flags (../domain.cpp:1051)
Per MPI rank memory allocation (min/avg/max) = 13.24 | 13.45 | 13.94 Mbytes
   Step          Temp          Press          Volume        Density         TotEng    
         0   0             -31876.762      17636.431      0.57988585    -12893.244    
       100   213.49407     -30002.093      17636.431      0.57988585    -12860.54     
       200   272.54824     -36267.945      17636.431      0.57988585    -12824.296    
       300   247.31771     -30813.89       17636.431      0.57988585    -12791.181    
       400   365.44045     -40200.501      17636.431      0.57988585    -12758.574    
       500   390.04847     -35283.076      17636.431      0.57988585    -12765.465    
       600   405.37642     -31390.924      17636.431      0.57988585    -12761.03     
       700   316.23977     -25622.144      17636.431      0.57988585    -12783.716    
       800   416.25121     -28441.627      17636.431      0.57988585    -12783.932    
       900   355.94793     -31932.299      17636.431      0.57988585    -12779.66     
      1000   253.89126     -30645.299      17636.431      0.57988585    -12780.656    
      1100   311.85955     -33842.993      17636.431      0.57988585    -12769.096    
      1200   172.21309     -29210.083      17636.431      0.57988585    -12774.23     
      1300   261.17774     -32908.143      17636.431      0.57988585    -12765.851    
      1400   193.05251     -27679.149      17636.431      0.57988585    -12769.79     
      1500   261.28539     -30414.605      17636.431      0.57988585    -12778.365    
      1600   322.4943      -22538.194      17636.431      0.57988585    -12769.35     
      1700   351.52921     -35417.481      17636.431      0.57988585    -12780.339    
      1800   365.10559     -34711.255      17636.431      0.57988585    -12769.334    
      1900   380.46949     -35845.467      17636.431      0.57988585    -12784.654    
      2000   326.48505     -30493.599      17636.431      0.57988585    -12767.625    
      2100   327.2667      -34072.111      17636.431      0.57988585    -12766.415    
      2200   310.6237      -31475.195      17636.431      0.57988585    -12762.71     
      2300   323.90534     -31915.316      17636.431      0.57988585    -12777.829    
      2400   218.01193     -32678.623      17636.431      0.57988585    -12802.822    
      2500   283.32791     -32596.566      17636.431      0.57988585    -12796.599    
      2600   290.23107     -37572.147      17636.431      0.57988585    -12766.401    
      2700   217.0785      -34562.789      17636.431      0.57988585    -12765.55     
      2800   307.10256     -33607.205      17636.431      0.57988585    -12758.686    
      2900   325.65223     -27852.054      17636.431      0.57988585    -12779.106    
      3000   255.06952     -36026.211      17636.431      0.57988585    -12783.72     
      3100   286.03547     -27519.889      17636.431      0.57988585    -12781.688    
      3200   249.3152      -33250.849      17636.431      0.57988585    -12782.257    
      3300   298.10348     -31548.866      17636.431      0.57988585    -12766.102    
      3400   228.61736     -38024.621      17636.431      0.57988585    -12776.664    
      3500   268.22819     -33045.255      17636.431      0.57988585    -12774.557    
      3600   274.34868     -34273.869      17636.431      0.57988585    -12784.251    
      3700   292.16291     -27342.856      17636.431      0.57988585    -12762.182    
      3800   357.24661     -33896.769      17636.431      0.57988585    -12727.1      
      3900   296.14003     -36081.391      17636.431      0.57988585    -12731.996    
      4000   305.60276     -32084.417      17636.431      0.57988585    -12757.308    
      4100   285.13207     -31298.873      17636.431      0.57988585    -12765.421    
      4200   266.44121     -35148.038      17636.431      0.57988585    -12776.657    
      4300   314.49262     -35278.125      17636.431      0.57988585    -12780.243    
      4400   265.00839     -28621.045      17636.431      0.57988585    -12787.452    
      4500   299.4861      -32478.362      17636.431      0.57988585    -12764.908    
      4600   263.60023     -31394.134      17636.431      0.57988585    -12748.302    
      4700   270.80344     -35371.467      17636.431      0.57988585    -12741.608    
      4800   304.95215     -32544.717      17636.431      0.57988585    -12767.227    
      4900   236.24084     -37231.923      17636.431      0.57988585    -12781.899    
      5000   328.68536     -29248.715      17636.431      0.57988585    -12775.562    
      5100   272.48929     -34187.864      17636.431      0.57988585    -12781.881    
      5200   334.10832     -31585.391      17636.431      0.57988585    -12765.856    
      5300   318.57669     -34075.112      17636.431      0.57988585    -12753.698    
      5400   292.32442     -31301.05       17636.431      0.57988585    -12744.504    
      5500   314.87173     -35501.043      17636.431      0.57988585    -12769.136    
      5600   266.88685     -33302.918      17636.431      0.57988585    -12797.694    
      5700   323.94523     -33205.95       17636.431      0.57988585    -12790.478    
      5800   237.61382     -33798.19       17636.431      0.57988585    -12774.329    
      5900   332.54463     -32095.803      17636.431      0.57988585    -12761.904    
      6000   281.28815     -32730.647      17636.431      0.57988585    -12755.646    
      6100   293.70692     -32443.841      17636.431      0.57988585    -12794.791    
      6200   256.1666      -37397.202      17636.431      0.57988585    -12810.738    
      6300   265.37933     -33025.188      17636.431      0.57988585    -12799.324    
      6400   214.60104     -34052.631      17636.431      0.57988585    -12772.706    
      6500   298.02802     -31170.353      17636.431      0.57988585    -12764.77     
      6600   231.58585     -36267.522      17636.431      0.57988585    -12773.825    
      6700   253.48993     -31217.406      17636.431      0.57988585    -12788.31     
      6800   269.8179      -33268.514      17636.431      0.57988585    -12819.231    
      6900   247.47577     -32728.583      17636.431      0.57988585    -12816.453    
      7000   301.42123     -36271.898      17636.431      0.57988585    -12771.54     
      7100   286.51969     -31797.369      17636.431      0.57988585    -12772.745    
      7200   325.68605     -34234.769      17636.431      0.57988585    -12761.944    
      7300   289.75481     -31579.728      17636.431      0.57988585    -12775.933    
      7400   333.21283     -31387.144      17636.431      0.57988585    -12791.817    
      7500   290.84493     -31676.643      17636.431      0.57988585    -12805.174    
      7600   311.61123     -34178.555      17636.431      0.57988585    -12795.916    
      7700   345.15849     -33083.813      17636.431      0.57988585    -12759.225    
      7800   308.70421     -34202.632      17636.431      0.57988585    -12754.992    
      7900   300.443       -32515.415      17636.431      0.57988585    -12771.349    
      8000   288.06005     -29540.264      17636.431      0.57988585    -12793.239    
      8100   257.29593     -32244.292      17636.431      0.57988585    -12804.199    
      8200   261.11901     -30302.229      17636.431      0.57988585    -12762.247    
      8300   319.15831     -35566.253      17636.431      0.57988585    -12739.472    
      8400   266.209       -31748.322      17636.431      0.57988585    -12758.946    
      8500   325.11198     -34102.356      17636.431      0.57988585    -12777.883    
      8600   288.23561     -31735.927      17636.431      0.57988585    -12790.45     
      8700   347.97179     -32997.755      17636.431      0.57988585    -12780        
      8800   344.56461     -27208.14       17636.431      0.57988585    -12758.036    
      8900   300.63989     -32695.532      17636.431      0.57988585    -12735.488    
      9000   355.69934     -30869.155      17636.431      0.57988585    -12751.16     
      9100   261.38108     -35319.901      17636.431      0.57988585    -12784.849    
      9200   291.93206     -33252.701      17636.431      0.57988585    -12786.072    
      9300   300.47813     -34530.667      17636.431      0.57988585    -12783.064    
      9400   298.40506     -30948.28       17636.431      0.57988585    -12764.678    
      9500   318.90473     -33394.735      17636.431      0.57988585    -12740.765    
      9600   277.98143     -30349.893      17636.431      0.57988585    -12734.144    
      9700   291.53667     -32042.773      17636.431      0.57988585    -12772.109    
      9800   247.75586     -31428.873      17636.431      0.57988585    -12795.129    
      9900   266.28646     -36110.545      17636.431      0.57988585    -12788.713    
     10000   257.51625     -34632.253      17636.431      0.57988585    -12766.387    
Loop time of 2.32316 on 20 procs for 10000 steps with 424 atoms

Performance: 371.907 ns/day, 0.065 hours/ns, 4304.484 timesteps/s, 1.825 Matom-step/s
99.9% CPU use with 20 MPI tasks x no OpenMP threads

MPI task timing breakdown:
Section |  min time  |  avg time  |  max time  |%varavg| %total
---------------------------------------------------------------
Pair    | 0.021361   | 0.19364    | 0.48463    |  33.0 |  8.34
Bond    | 0.0064197  | 0.03543    | 0.072975   |  11.4 |  1.53
Kspace  | 1.1256     | 1.4196     | 1.6146     |  12.6 | 61.11
Neigh   | 0.019483   | 0.02032    | 0.020919   |   0.3 |  0.87
Comm    | 0.5125     | 0.55487    | 0.58909    |   2.7 | 23.88
Output  | 0.0048164  | 0.0075014  | 0.010238   |   1.9 |  0.32
Modify  | 0.017418   | 0.046812   | 0.064477   |   5.7 |  2.01
Other   |            | 0.04498    |            |       |  1.94

Nlocal:           21.2 ave          38 max           2 min
Histogram: 4 3 1 0 0 3 1 0 1 7
Nghost:        1620.65 ave        1749 max        1445 min
Histogram: 8 0 0 0 0 0 0 0 4 8
Neighs:        2667.55 ave        4830 max         261 min
Histogram: 4 3 1 0 2 1 1 0 2 6

Total # of neighbors = 53351
Ave neighs/atom = 125.82783
Ave special neighs/atom = 12.943396
Neighbor list builds = 59
Dangerous builds = 0
unfix           mynpt


# Fix GCMC
# N: выполнять GCMC каждые N шагов
# Nexchange: количество попыток обмена (вставка/удаление)
# Ntranslate_rotate_mol: количество попыток трансляции/вращения молекулы
# Nrigidbody_... : 0, так как CO2 у нас гибкий
# mol co2mol: используемый шаблон молекулы
# full_energy: пересчитывать полную энергию системы (рекомендуется)
# pressure ${P}: давление (LAMMPS вычислит химический потенциал)
# displace: максимальное смещение для трансляции молекулы (в Ангстремах)
#fix             gcmc_run all gcmc 100 100 100 0 ${seed} ${T} ${P} ${fug_coeff} mol co2mol full_energy displace 0.5
fix             GCMC co2_atoms gcmc 100 1000 0 0 12345 298.0 -5.0 0.5 mol co2mol pressure ${press} full_energy group co2_atoms
fix             GCMC co2_atoms gcmc 100 1000 0 0 12345 298.0 -5.0 0.5 mol co2mol pressure 0.5 full_energy group co2_atoms

# --- Настройки вывода ---
#thermo_style    custom step temp press pe etotal natoms ncmc_insert ncmc_delete ncmc_trans ncmc_rotate ncmc_attempt ncmc_accept atoms_in_gcmc_mol


thermo          1000
thermo_style    custom step temp press v_N_co2 v_ads_density pe ke etotal
dump            gcmc_dump all atom 500 dumps_T298K/dump.gcmc_mof5_co2_${press}.lammpstrj
dump            gcmc_dump all atom 500 dumps_T298K/dump.gcmc_mof5_co2_0.5.lammpstrj

# --- Запуск симуляции ---
# Для GCMC обычно не нужен MD integrator для всей системы, если только не изучается динамика каркаса.
# Если каркас должен быть подвижен, добавьте fix nvt для атомов MOF-5.
# Например, если атомы MOF-5 должны оставаться фиксированными:
# group mof_atoms type <= 5
# fix freeze_mof mof_atoms setforce 0.0 0.0 0.0
# Однако, для GCMC лучше, чтобы каркас был термостатирован, если он не абсолютно жесткий.
# Если вы хотите просто провести GCMC без MD шагов для каркаса:
# run 0 post no # Это позволит fix gcmc работать без MD шагов
# Но обычно GCMC совмещают с MD:
timestep        1.0 # фемтосекунды (если есть MD)
run             100000 # Количество шагов GCMC/MD
WARNING: No fixes with time integration, atoms won't move (../verlet.cpp:60)
PPPM initialization ...
  using 12-bit tables for long-range coulomb (../kspace.cpp:342)
  G vector (1/distance) = 0.2438405
  grid = 16 16 16
  stencil order = 5
  estimated absolute RMS force accuracy = 0.002249822
  estimated relative force accuracy = 6.7752721e-06
  using double precision KISS FFT
  3d grid and FFT values/proc = 2250 256
Generated 21 of 21 mixed pair_coeff terms from arithmetic mixing rule
0 atoms in group FixGCMC:gcmc_exclusion_group:GCMC
0 atoms in group FixGCMC:rotation_gas_atoms:GCMC
WARNING: Neighbor exclusions used with KSpace solver may give inconsistent Coulombic energies (../neighbor.cpp:666)
WARNING: Inconsistent image flags (../domain.cpp:1051)
Per MPI rank memory allocation (min/avg/max) = 14.24 | 14.46 | 14.93 Mbytes
   Step          Temp          Press         v_N_co2     v_ads_density      PotEng         KinEng         TotEng    
     10000   257.51625     -34632.253      0              0             -13091.084      324.69777     -12766.387    
     11000   306.11603     -34230.462      61             0.0034587497  -13522.791      385.97639     -13136.815    
     12000   315.73985     -34243.707      79             0.0044793643  -13657.723      398.1109      -13259.612    
     13000   321.8117      -34111.991      85             0.0048195692  -13721.447      405.76679     -13315.68     
     14000   320.29276     -34012.739      89             0.0050463724  -13753.842      403.85159     -13349.99     
     15000   326.20025     -33771.601      93             0.0052731757  -13782.571      411.30023     -13371.271    
     16000   333.95821     -33734.345      99             0.0056133806  -13823.684      421.08212     -13402.602    
     17000   326.57929     -33684.171      101            0.0057267822  -13850.898      411.77816     -13439.119    
     18000   331.80143     -33495.475      103            0.0058401838  -13885.749      418.36267     -13467.386    
     19000   337.99906     -33755.392      109            0.0061803887  -13907.327      426.17714     -13481.15     
     20000   336.28993     -33678.765      107            0.0060669871  -13920.513      424.02214     -13496.49     
     21000   331.16745     -33604.91       101            0.0057267822  -13883.947      417.5633      -13466.384    
     22000   334.47285     -33460.389      106            0.0060102863  -13924.787      421.73102     -13503.056    
     23000   337.39101     -33287.983      112            0.0063504912  -13960.231      425.41048     -13534.821    
     24000   348.09986     -33411.973      114            0.0064638928  -13968.936      438.91307     -13530.023    
     25000   345.13655     -33358.326      114            0.0064638928  -13974.944      435.17669     -13539.767    
     26000   333.10013     -33442.484      111            0.0062937903  -13965.008      420.00018     -13545.008    
     27000   337.56712     -33266.969      105            0.0059535855  -13924.257      425.63252     -13498.625    
     28000   336.20883     -33266.375      107            0.0060669871  -13946.579      423.91988     -13522.659    
     29000   340.45658     -33198.725      108            0.0061236879  -13953.364      429.27579     -13524.089    
     30000   335.44118     -33224.272      109            0.0061803887  -13958.411      422.95196     -13535.459    
     31000   341.66523     -33243.425      115            0.0065205936  -13996.979      430.79976     -13566.18     
     32000   342.90281     -33252.439      114            0.0064638928  -14002.877      432.36021     -13570.517    
     33000   336.86249     -33286.309      109            0.0061803887  -13974.085      424.74408     -13549.341    
     34000   337.69706     -33066.347      114            0.0064638928  -13996.225      425.79637     -13570.428    
     35000   340.93038     -33100.366      119            0.0067473969  -14035.302      429.8732      -13605.428    
     36000   343.07464     -33166.702      118            0.006690696   -14030.814      432.57686     -13598.237    
     37000   349.70535     -33130.536      116            0.0065772944  -14017.786      440.93741     -13576.849    
     38000   344.34676     -33075.674      116            0.0065772944  -14019.594      434.18086     -13585.414    
     39000   347.40992     -32896.017      118            0.006690696   -14040.992      438.04314     -13602.949    
     40000   345.80337     -33030.547      120            0.0068040977  -14048.129      436.01747     -13612.112    
     41000   355.56676     -32993.364      126            0.0071443026  -14080.455      448.32796     -13632.127    
     42000   344.44168     -33072.617      118            0.006690696   -14034.834      434.30054     -13600.534    
     43000   349.38864     -32966.053      126            0.0071443026  -14086.4        440.53808     -13645.862    
     44000   346.78686     -33144.486      119            0.0067473969  -14053.934      437.25753     -13616.676    
     45000   343.02873     -33152.815      116            0.0065772944  -14033.752      432.51897     -13601.233    
     46000   348.28355     -33180.395      120            0.0068040977  -14051.275      439.14469     -13612.131    
     47000   347.50436     -33050.284      119            0.0067473969  -14044.617      438.16222     -13606.455    
     48000   346.50749     -33026.288      117            0.0066339952  -14044.005      436.90529     -13607.099    
     49000   345.83206     -33165.106      115            0.0065205936  -14027.657      436.05365     -13591.603    
     50000   350.13421     -33263.87       118            0.006690696   -14039.29       441.47816     -13597.811    
     51000   346.49652     -33260.939      118            0.006690696   -14048.666      436.89145     -13611.775    
     52000   347.24547     -33397.084      119            0.0067473969  -14068.271      437.83579     -13630.435    
     53000   348.12353     -33367.875      121            0.0068607985  -14073.426      438.94292     -13634.483    
     54000   353.84183     -33058.765      129            0.007314405   -14129.188      446.15303     -13683.034    
     55000   357.16192     -33453.019      128            0.0072577042  -14126.953      450.33927     -13676.614    
     56000   352.87896     -33299.471      125            0.0070876017  -14124.056      444.93895     -13679.118    
     57000   344.77456     -33384.882      121            0.0068607985  -14099.285      434.72026     -13664.565    
     58000   341.67995     -33463.642      120            0.0068040977  -14075.373      430.81832     -13644.554    
     59000   347.03442     -33471.711      126            0.0071443026  -14114.353      437.56969     -13676.783    
     60000   349.49849     -33358.386      123            0.0069742001  -14108.078      440.67658     -13667.401    
     61000   354.17838     -33331.335      132            0.0074845074  -14170.207      446.57737     -13723.63     
     62000   357.44644     -33252.78       131            0.0074278066  -14147.549      450.69802     -13696.851    
     63000   354.09153     -33278.279      129            0.007314405   -14138.783      446.46786     -13692.315    
     64000   357.95681     -33323.835      128            0.0072577042  -14140.113      451.34153     -13688.771    
     65000   354.61039     -33328.14       125            0.0070876017  -14119.495      447.12209     -13672.373    
     66000   354.01692     -33380.606      131            0.0074278066  -14154.628      446.37379     -13708.254    
     67000   349.7333      -33339.264      126            0.0071443026  -14134.058      440.97266     -13693.085    
     68000   356.80775     -33009.449      131            0.0074278066  -14162.245      449.8927      -13712.353    
     69000   353.19587     -33130.288      127            0.0072010034  -14136.873      445.33854     -13691.534    
     70000   355.38276     -32882.388      127            0.0072010034  -14135.056      448.09595     -13686.96     
     71000   355.08242     -32971.643      124            0.0070309009  -14129.212      447.71726     -13681.495    
     72000   364.90471     -32948.632      137            0.0077680115  -14188.249      460.10202     -13728.147    
     73000   353.4319      -32978.995      126            0.0071443026  -14131.622      445.63615     -13685.986    
     74000   357.5807      -32940.773      129            0.007314405   -14138.797      450.8673      -13687.93     
     75000   346.67431     -33018.647      120            0.0068040977  -14101.078      437.11563     -13663.962    
     76000   353.43546     -32859.787      127            0.0072010034  -14146.538      445.64064     -13700.897    
     77000   348.68501     -33107.173      123            0.0069742001  -14120.343      439.65088     -13680.692    
     78000   353.65606     -33093.425      128            0.0072577042  -14143.916      445.91879     -13697.997    
     79000   349.88511     -32998.971      124            0.0070309009  -14133.514      441.16406     -13692.35     
     80000   354.62029     -33053.781      134            0.0075979091  -14194.129      447.13457     -13746.995    
     81000   355.51006     -33128.129      133            0.0075412083  -14193.863      448.25646     -13745.606    
     82000   349.74355     -33116.248      126            0.0071443026  -14149.477      440.98557     -13708.491    
     83000   346.143       -33165.335      122            0.0069174993  -14123.666      436.44571     -13687.22     
     84000   348.33633     -33248.195      126            0.0071443026  -14140.848      439.21123     -13701.637    
     85000   344.04663     -33207.481      118            0.006690696   -14093.495      433.80243     -13659.693    
     86000   344.91059     -33233.165      119            0.0067473969  -14100.148      434.89178     -13665.257    
     87000   350.94036     -33227.896      128            0.0072577042  -14143.184      442.49461     -13700.69     
     88000   347.03553     -33166.581      124            0.0070309009  -14125.959      437.57108     -13688.388    
     89000   351.1931      -33160.537      125            0.0070876017  -14141.268      442.81328     -13698.454    
     90000   348.49706     -33158.481      122            0.0069174993  -14125.084      439.4139      -13685.671    
     91000   359.84648     -33067.793      127            0.0072010034  -14153.451      453.72419     -13699.727    
     92000   346.18736     -33039.179      121            0.0068607985  -14125.809      436.50163     -13689.307    
     93000   346.56289     -33024.298      121            0.0068607985  -14126.087      436.97514     -13689.112    
     94000   340.26459     -33106.459      116            0.0065772944  -14097.541      429.03372     -13668.507    
     95000   345.38157     -33055.99       123            0.0069742001  -14131.266      435.48563     -13695.781    
     96000   343.71796     -32903.784      122            0.0069174993  -14126.519      433.38801     -13693.131    
     97000   348.85275     -33079.099      128            0.0072577042  -14166.397      439.86237     -13726.535    
     98000   348.57564     -33123.373      131            0.0074278066  -14182.377      439.51298     -13742.864    
     99000   348.89902     -33083.474      134            0.0075979091  -14198.786      439.92073     -13758.866    
    100000   347.70368     -33149.703      130            0.0073711058  -14179.148      438.41354     -13740.734    
    101000   346.71625     -33130.029      123            0.0069742001  -14147.361      437.1685      -13710.193    
    102000   349.32171     -32955.28       129            0.007314405   -14185.782      440.45368     -13745.329    
    103000   351.42072     -32965.79       131            0.0074278066  -14193.454      443.10028     -13750.353    
    104000   348.65756     -32839.124      133            0.0075412083  -14211.655      439.61627     -13772.039    
    105000   350.76355     -32935.647      134            0.0075979091  -14192.657      442.27167     -13750.385    
    106000   345.84641     -32999.158      128            0.0072577042  -14167.507      436.07174     -13731.435    
    107000   346.48342     -33008.335      126            0.0071443026  -14160.99       436.87493     -13724.115    
    108000   349.80802     -32956.779      126            0.0071443026  -14159.181      441.06687     -13718.114    
    109000   345.7886      -33054.819      126            0.0071443026  -14157.263      435.99885     -13721.264    
    110000   343.21904     -33044.364      122            0.0069174993  -14124.326      432.75894     -13691.567    
Loop time of 1742.1 on 20 procs for 100000 steps with 790 atoms

Performance: 4.960 ns/day, 4.839 hours/ns, 57.402 timesteps/s, 45.348 katom-step/s
100.0% CPU use with 20 MPI tasks x no OpenMP threads

MPI task timing breakdown:
Section |  min time  |  avg time  |  max time  |%varavg| %total
---------------------------------------------------------------
Pair    | 3.8627     | 8.0228     | 13.9       |  97.5 |  0.46
Bond    | 0.06378    | 0.405      | 0.85367    |  32.4 |  0.02
Kspace  | 12.27      | 17.75      | 22.149     |  65.2 |  1.02
Neigh   | 1.0818     | 1.1005     | 1.1137     |   1.1 |  0.06
Comm    | 6.6778     | 7.4287     | 7.9587     |  12.6 |  0.43
Output  | 0.087945   | 0.14229    | 0.18129    |   7.0 |  0.01
Modify  | 1706.5     | 1706.6     | 1706.6     |   0.1 | 97.96
Other   |            | 0.6758     |            |       |  0.04

Nlocal:           39.5 ave          54 max          16 min
Histogram: 1 1 1 1 2 3 3 1 3 4
Nghost:         2724.3 ave        2869 max        2538 min
Histogram: 5 3 0 0 0 0 0 0 8 4
Neighs:         9931.4 ave       13543 max        4058 min
Histogram: 1 1 1 1 2 3 3 1 3 4

Total # of neighbors = 198628
Ave neighs/atom = 251.42785
Ave special neighs/atom = 7.8734177
Neighbor list builds = 1001992
Dangerous builds = 0

# --- Завершение ---
print "GCMC simulation finished." 
GCMC simulation finished.
Total wall time: 0:29:04
