LAMMPS (29 Aug 2024 - Update 2)
# LAMMPS input script for GCMC simulation of CO2 in MOF-5

variable press equal ${p}
variable press equal 1.0

# --- Инициализация ---
units           real
atom_style      full
boundary        p p p

# --- Определение стилей потенциалов ---
# Важно: эти стили должны соответствовать формату коэффициентов в data.MOF5_charged_simple
# и добавленным коэффициентам для CO2.
pair_style      lj/cut/coul/long 12.0 # Катофф 12 Ангстрем для LJ и кулона
bond_style      harmonic
angle_style     hybrid fourier cosine/periodic harmonic # MOF-5 использует fourier и cosine/periodic, CO2 - harmonic
dihedral_style  harmonic # Предполагаем, что диэдрали в MOF-5 совместимы с harmonic (K d n)
improper_style  fourier # Предполагаем, что несобственные углы в MOF-5 совместимы с umbrella (K chi0)

# --- Чтение данных MOF-5 ---
# Добавляем 2 новых типа атомов (для C и O в CO2), 1 новый тип связи (C=O), 1 новый тип угла (O=C=O)
read_data       data.MOF5_charged_simple extra/atom/types 2 extra/bond/types 1 extra/angle/types 1
Reading data file ...
  triclinic box = (0 0 0) to (26.029363 26.031584 26.028346) with tilt (0.003152 -0.002169 0.002663)
  2 by 5 by 2 MPI processor grid
  reading atoms ...
  424 atoms
  scanning bonds ...
  4 = max bonds/atom
  scanning angles ...
  6 = max angles/atom
  scanning dihedrals ...
  8 = max dihedrals/atom
  scanning impropers ...
  3 = max impropers/atom
  triclinic box = (0 0 0) to (26.029363 26.031584 26.028346) with tilt (0.003152 -0.002169 0.002663)
  2 by 5 by 2 MPI processor grid
  reading bonds ...
  512 bonds
  reading angles ...
  912 angles
  reading dihedrals ...
  960 dihedrals
  reading impropers ...
  576 impropers
Finding 1-2 1-3 1-4 neighbors ...
  special bond factors lj:    0        0        0       
  special bond factors coul:  0        0        0       
     4 = max # of 1-2 neighbors
    12 = max # of 1-3 neighbors
    24 = max # of 1-4 neighbors
    22 = max # of special neighbors
  special bonds CPU = 0.001 seconds
  read_data CPU = 0.020 seconds

# --- Определение параметров для CO2 ---
# Массы для новых типов атомов (6: C_CO2, 7: O_CO2)
mass            6 12.011   # C in CO2
mass            7 15.9994  # O in CO2

# Pair Coeffs для CO2 (MOF-5 pair_coeffs читаются из data-файла)
# pair_coeff I J epsilon sigma
pair_coeff      6 6 0.0514 2.85    # C_CO2 - C_CO2
pair_coeff      7 7 0.1600 3.02    # O_CO2 - O_CO2

# Правила смешивания для межмолекулярных взаимодействий (например, MOF-CO2)
# Lorentz-Berthelot по умолчанию для lj/cut/coul/long
pair_modify     mix arithmetic

# Bond Coeffs для CO2 (тип связи 7)
# bond_coeff Type K r0
bond_coeff      7 1000.0 1.16   # C=O

# Angle Coeffs для CO2 (тип угла 10)
# angle_coeff Type K theta0 (для стиля harmonic)
angle_coeff     10 harmonic 100.0 180.0 # O=C=O

# --- Настройки дальнодействующих взаимодействий ---
kspace_style    pppm 1.0e-5

# --- Определение молекулы CO2 ---
molecule        co2mol CO2.txt
Read molecule template co2mol:
# CO2 molecule template for LAMMPS
  1 molecules
  0 fragments
  3 atoms with max type 7
  2 bonds with max type 7
  1 angles with max type 10
  0 dihedrals with max type 0
  0 impropers with max type 0

# --- Настройки GCMC ---
variable        T equal 298.0       # Температура в Кельвинах
variable        P equal 0.1         # Давление в атмосферах
variable        fug_coeff equal 1.0 # Коэффициент фугитивности (для идеального газа = 1.0)
variable        seed equal 12345    # Начальное число для генератора случайных чисел

# Группа для атомов CO2 (типы 6 и 7)
group           co2_atoms type 6 7
0 atoms in group co2_atoms


# Variables for analysis
variable N_co2  equal count(co2_atoms)/3
variable ads_density equal v_N_co2/vol

dump            dall all atom 100 dumps_T298K/dump_npt_${press}.lammpstrj
dump            dall all atom 100 dumps_T298K/dump_npt_1.lammpstrj

fix             mynpt all nvt temp 298.0 298.0 100.0

# Thermo output
thermo          100
thermo_style    custom step temp press vol density etotal
run             10000
PPPM initialization ...
WARNING: System is not charge neutral, net charge = 0.0008 (../kspace.cpp:327)
  using 12-bit tables for long-range coulomb (../kspace.cpp:342)
  G vector (1/distance) = 0.2438405
  grid = 16 16 16
  stencil order = 5
  estimated absolute RMS force accuracy = 0.002249822
  estimated relative force accuracy = 6.7752721e-06
  using double precision KISS FFT
  3d grid and FFT values/proc = 2250 256
Generated 21 of 21 mixed pair_coeff terms from arithmetic mixing rule
Neighbor list info ...
  update: every = 1 steps, delay = 0 steps, check = yes
  max neighbors/atom: 2000, page size: 100000
  master list distance cutoff = 14
  ghost atom cutoff = 14
  binsize = 7, bins = 4 4 4
  1 neighbor lists, perpetual/occasional/extra = 1 0 0
  (1) pair lj/cut/coul/long, perpetual
      attributes: half, newton on
      pair build: half/bin/newton/tri
      stencil: half/bin/3d/tri
      bin: standard
WARNING: Inconsistent image flags (../domain.cpp:1051)
Per MPI rank memory allocation (min/avg/max) = 13.24 | 13.45 | 13.94 Mbytes
   Step          Temp          Press          Volume        Density         TotEng    
         0   0             -31876.762      17636.431      0.57988585    -12893.244    
       100   213.49407     -30002.093      17636.431      0.57988585    -12860.54     
       200   272.54824     -36267.945      17636.431      0.57988585    -12824.296    
       300   247.31771     -30813.89       17636.431      0.57988585    -12791.181    
       400   365.44045     -40200.501      17636.431      0.57988585    -12758.574    
       500   390.04847     -35283.076      17636.431      0.57988585    -12765.465    
       600   405.37642     -31390.924      17636.431      0.57988585    -12761.03     
       700   316.23977     -25622.144      17636.431      0.57988585    -12783.716    
       800   416.25121     -28441.627      17636.431      0.57988585    -12783.932    
       900   355.94793     -31932.299      17636.431      0.57988585    -12779.66     
      1000   253.89126     -30645.299      17636.431      0.57988585    -12780.656    
      1100   311.85955     -33842.993      17636.431      0.57988585    -12769.096    
      1200   172.21309     -29210.083      17636.431      0.57988585    -12774.23     
      1300   261.17774     -32908.143      17636.431      0.57988585    -12765.851    
      1400   193.05251     -27679.149      17636.431      0.57988585    -12769.79     
      1500   261.28539     -30414.605      17636.431      0.57988585    -12778.365    
      1600   322.4943      -22538.194      17636.431      0.57988585    -12769.35     
      1700   351.52921     -35417.481      17636.431      0.57988585    -12780.339    
      1800   365.10559     -34711.255      17636.431      0.57988585    -12769.334    
      1900   380.46949     -35845.467      17636.431      0.57988585    -12784.654    
      2000   326.48505     -30493.599      17636.431      0.57988585    -12767.625    
      2100   327.2667      -34072.111      17636.431      0.57988585    -12766.415    
      2200   310.6237      -31475.195      17636.431      0.57988585    -12762.71     
      2300   323.90534     -31915.316      17636.431      0.57988585    -12777.829    
      2400   218.01193     -32678.623      17636.431      0.57988585    -12802.822    
      2500   283.32791     -32596.566      17636.431      0.57988585    -12796.599    
      2600   290.23107     -37572.147      17636.431      0.57988585    -12766.401    
      2700   217.0785      -34562.789      17636.431      0.57988585    -12765.55     
      2800   307.10256     -33607.205      17636.431      0.57988585    -12758.686    
      2900   325.65223     -27852.054      17636.431      0.57988585    -12779.106    
      3000   255.06952     -36026.211      17636.431      0.57988585    -12783.72     
      3100   286.03547     -27519.889      17636.431      0.57988585    -12781.688    
      3200   249.3152      -33250.849      17636.431      0.57988585    -12782.257    
      3300   298.10348     -31548.866      17636.431      0.57988585    -12766.102    
      3400   228.61736     -38024.621      17636.431      0.57988585    -12776.664    
      3500   268.22819     -33045.255      17636.431      0.57988585    -12774.557    
      3600   274.34868     -34273.869      17636.431      0.57988585    -12784.251    
      3700   292.16291     -27342.856      17636.431      0.57988585    -12762.182    
      3800   357.24661     -33896.769      17636.431      0.57988585    -12727.1      
      3900   296.14003     -36081.391      17636.431      0.57988585    -12731.996    
      4000   305.60276     -32084.417      17636.431      0.57988585    -12757.308    
      4100   285.13207     -31298.873      17636.431      0.57988585    -12765.421    
      4200   266.44121     -35148.038      17636.431      0.57988585    -12776.657    
      4300   314.49262     -35278.125      17636.431      0.57988585    -12780.243    
      4400   265.00839     -28621.045      17636.431      0.57988585    -12787.452    
      4500   299.4861      -32478.362      17636.431      0.57988585    -12764.908    
      4600   263.60023     -31394.134      17636.431      0.57988585    -12748.302    
      4700   270.80344     -35371.467      17636.431      0.57988585    -12741.608    
      4800   304.95215     -32544.717      17636.431      0.57988585    -12767.227    
      4900   236.24084     -37231.923      17636.431      0.57988585    -12781.899    
      5000   328.68536     -29248.715      17636.431      0.57988585    -12775.562    
      5100   272.48929     -34187.864      17636.431      0.57988585    -12781.881    
      5200   334.10832     -31585.391      17636.431      0.57988585    -12765.856    
      5300   318.57669     -34075.112      17636.431      0.57988585    -12753.698    
      5400   292.32442     -31301.05       17636.431      0.57988585    -12744.504    
      5500   314.87173     -35501.043      17636.431      0.57988585    -12769.136    
      5600   266.88685     -33302.918      17636.431      0.57988585    -12797.694    
      5700   323.94523     -33205.95       17636.431      0.57988585    -12790.478    
      5800   237.61382     -33798.19       17636.431      0.57988585    -12774.329    
      5900   332.54463     -32095.803      17636.431      0.57988585    -12761.904    
      6000   281.28815     -32730.647      17636.431      0.57988585    -12755.646    
      6100   293.70692     -32443.841      17636.431      0.57988585    -12794.791    
      6200   256.1666      -37397.202      17636.431      0.57988585    -12810.738    
      6300   265.37933     -33025.188      17636.431      0.57988585    -12799.324    
      6400   214.60104     -34052.631      17636.431      0.57988585    -12772.706    
      6500   298.02802     -31170.353      17636.431      0.57988585    -12764.77     
      6600   231.58585     -36267.522      17636.431      0.57988585    -12773.825    
      6700   253.48993     -31217.406      17636.431      0.57988585    -12788.31     
      6800   269.8179      -33268.514      17636.431      0.57988585    -12819.231    
      6900   247.47577     -32728.583      17636.431      0.57988585    -12816.453    
      7000   301.42123     -36271.898      17636.431      0.57988585    -12771.54     
      7100   286.51969     -31797.369      17636.431      0.57988585    -12772.745    
      7200   325.68605     -34234.769      17636.431      0.57988585    -12761.944    
      7300   289.75481     -31579.728      17636.431      0.57988585    -12775.933    
      7400   333.21283     -31387.144      17636.431      0.57988585    -12791.817    
      7500   290.84493     -31676.643      17636.431      0.57988585    -12805.174    
      7600   311.61123     -34178.555      17636.431      0.57988585    -12795.916    
      7700   345.15849     -33083.813      17636.431      0.57988585    -12759.225    
      7800   308.70421     -34202.632      17636.431      0.57988585    -12754.992    
      7900   300.443       -32515.415      17636.431      0.57988585    -12771.349    
      8000   288.06005     -29540.264      17636.431      0.57988585    -12793.239    
      8100   257.29593     -32244.292      17636.431      0.57988585    -12804.199    
      8200   261.11901     -30302.229      17636.431      0.57988585    -12762.247    
      8300   319.15831     -35566.253      17636.431      0.57988585    -12739.472    
      8400   266.209       -31748.322      17636.431      0.57988585    -12758.946    
      8500   325.11198     -34102.356      17636.431      0.57988585    -12777.883    
      8600   288.23561     -31735.927      17636.431      0.57988585    -12790.45     
      8700   347.97179     -32997.755      17636.431      0.57988585    -12780        
      8800   344.56461     -27208.14       17636.431      0.57988585    -12758.036    
      8900   300.63989     -32695.532      17636.431      0.57988585    -12735.488    
      9000   355.69934     -30869.155      17636.431      0.57988585    -12751.16     
      9100   261.38108     -35319.901      17636.431      0.57988585    -12784.849    
      9200   291.93206     -33252.701      17636.431      0.57988585    -12786.072    
      9300   300.47813     -34530.667      17636.431      0.57988585    -12783.064    
      9400   298.40506     -30948.28       17636.431      0.57988585    -12764.678    
      9500   318.90473     -33394.735      17636.431      0.57988585    -12740.765    
      9600   277.98143     -30349.893      17636.431      0.57988585    -12734.144    
      9700   291.53667     -32042.773      17636.431      0.57988585    -12772.109    
      9800   247.75586     -31428.873      17636.431      0.57988585    -12795.129    
      9900   266.28646     -36110.545      17636.431      0.57988585    -12788.713    
     10000   257.51625     -34632.253      17636.431      0.57988585    -12766.387    
Loop time of 2.45302 on 20 procs for 10000 steps with 424 atoms

Performance: 352.219 ns/day, 0.068 hours/ns, 4076.606 timesteps/s, 1.728 Matom-step/s
99.9% CPU use with 20 MPI tasks x no OpenMP threads

MPI task timing breakdown:
Section |  min time  |  avg time  |  max time  |%varavg| %total
---------------------------------------------------------------
Pair    | 0.019048   | 0.19826    | 0.53092    |  34.0 |  8.08
Bond    | 0.0060931  | 0.036538   | 0.08014    |  12.2 |  1.49
Kspace  | 1.1876     | 1.5052     | 1.6968     |  12.7 | 61.36
Neigh   | 0.021084   | 0.02195    | 0.022634   |   0.3 |  0.89
Comm    | 0.55123    | 0.59469    | 0.63122    |   3.1 | 24.24
Output  | 0.005185   | 0.0079945  | 0.010742   |   1.9 |  0.33
Modify  | 0.021814   | 0.041117   | 0.058532   |   6.6 |  1.68
Other   |            | 0.04728    |            |       |  1.93

Nlocal:           21.2 ave          38 max           2 min
Histogram: 4 3 1 0 0 3 1 0 1 7
Nghost:        1620.65 ave        1749 max        1445 min
Histogram: 8 0 0 0 0 0 0 0 4 8
Neighs:        2667.55 ave        4830 max         261 min
Histogram: 4 3 1 0 2 1 1 0 2 6

Total # of neighbors = 53351
Ave neighs/atom = 125.82783
Ave special neighs/atom = 12.943396
Neighbor list builds = 59
Dangerous builds = 0
unfix           mynpt


# Fix GCMC
# N: выполнять GCMC каждые N шагов
# Nexchange: количество попыток обмена (вставка/удаление)
# Ntranslate_rotate_mol: количество попыток трансляции/вращения молекулы
# Nrigidbody_... : 0, так как CO2 у нас гибкий
# mol co2mol: используемый шаблон молекулы
# full_energy: пересчитывать полную энергию системы (рекомендуется)
# pressure ${P}: давление (LAMMPS вычислит химический потенциал)
# displace: максимальное смещение для трансляции молекулы (в Ангстремах)
#fix             gcmc_run all gcmc 100 100 100 0 ${seed} ${T} ${P} ${fug_coeff} mol co2mol full_energy displace 0.5
fix             GCMC co2_atoms gcmc 100 1000 0 0 12345 298.0 -5.0 0.5 mol co2mol pressure ${press} full_energy group co2_atoms
fix             GCMC co2_atoms gcmc 100 1000 0 0 12345 298.0 -5.0 0.5 mol co2mol pressure 1 full_energy group co2_atoms

# --- Настройки вывода ---
#thermo_style    custom step temp press pe etotal natoms ncmc_insert ncmc_delete ncmc_trans ncmc_rotate ncmc_attempt ncmc_accept atoms_in_gcmc_mol


thermo          1000
thermo_style    custom step temp press v_N_co2 v_ads_density pe ke etotal
dump            gcmc_dump all atom 500 dumps_T298K/dump.gcmc_mof5_co2_${press}.lammpstrj
dump            gcmc_dump all atom 500 dumps_T298K/dump.gcmc_mof5_co2_1.lammpstrj

# --- Запуск симуляции ---
# Для GCMC обычно не нужен MD integrator для всей системы, если только не изучается динамика каркаса.
# Если каркас должен быть подвижен, добавьте fix nvt для атомов MOF-5.
# Например, если атомы MOF-5 должны оставаться фиксированными:
# group mof_atoms type <= 5
# fix freeze_mof mof_atoms setforce 0.0 0.0 0.0
# Однако, для GCMC лучше, чтобы каркас был термостатирован, если он не абсолютно жесткий.
# Если вы хотите просто провести GCMC без MD шагов для каркаса:
# run 0 post no # Это позволит fix gcmc работать без MD шагов
# Но обычно GCMC совмещают с MD:
timestep        1.0 # фемтосекунды (если есть MD)
run             100000 # Количество шагов GCMC/MD
WARNING: No fixes with time integration, atoms won't move (../verlet.cpp:60)
PPPM initialization ...
  using 12-bit tables for long-range coulomb (../kspace.cpp:342)
  G vector (1/distance) = 0.2438405
  grid = 16 16 16
  stencil order = 5
  estimated absolute RMS force accuracy = 0.002249822
  estimated relative force accuracy = 6.7752721e-06
  using double precision KISS FFT
  3d grid and FFT values/proc = 2250 256
Generated 21 of 21 mixed pair_coeff terms from arithmetic mixing rule
0 atoms in group FixGCMC:gcmc_exclusion_group:GCMC
0 atoms in group FixGCMC:rotation_gas_atoms:GCMC
WARNING: Neighbor exclusions used with KSpace solver may give inconsistent Coulombic energies (../neighbor.cpp:666)
WARNING: Inconsistent image flags (../domain.cpp:1051)
Per MPI rank memory allocation (min/avg/max) = 14.24 | 14.46 | 14.93 Mbytes
   Step          Temp          Press         v_N_co2     v_ads_density      PotEng         KinEng         TotEng    
     10000   257.51625     -34632.253      0              0             -13091.084      324.69777     -12766.387    
     11000   310.25905     -34165.5        70             0.003969057   -13552.616      391.20025     -13161.416    
     12000   322.68205     -34018.523      81             0.0045927659  -13634.665      406.86419     -13227.801    
     13000   334.65872     -34020.849      98             0.0055566798  -13745.299      421.96537     -13323.333    
     14000   334.20854     -34050.872      104            0.0058968847  -13796.193      421.39775     -13374.795    
     15000   335.71203     -34082.931      98             0.0055566798  -13771.698      423.29348     -13348.404    
     16000   334.26582     -34143.313      106            0.0060102863  -13817.141      421.46997     -13395.671    
     17000   349.44344     -33974.074      124            0.0070309009  -13938.836      440.60717     -13498.228    
     18000   339.47188     -33911.548      108            0.0061236879  -13866.913      428.0342      -13438.879    
     19000   338.76034     -33905.862      114            0.0064638928  -13888.84       427.13704     -13461.703    
     20000   337.10327     -33877.373      111            0.0062937903  -13884.754      425.04767     -13459.707    
     21000   336.63445     -33653.734      108            0.0061236879  -13894.896      424.45654     -13470.439    
     22000   339.3922      -33661.068      111            0.0062937903  -13909.268      427.93373     -13481.334    
     23000   346.56532     -33704.725      122            0.0069174993  -13964.141      436.9782      -13527.163    
     24000   352.66818     -33629.535      126            0.0071443026  -14004.972      444.67319     -13560.299    
     25000   347.08412     -33708.11       128            0.0072577042  -14022.995      437.63235     -13585.363    
     26000   354.22219     -33653.304      126            0.0071443026  -14018.067      446.63261     -13571.434    
     27000   344.90521     -33615.388      121            0.0068607985  -13987.984      434.885       -13553.099    
     28000   349.14243     -33284.4        130            0.0073711058  -14044.877      440.22763     -13604.649    
     29000   353.11413     -33341.052      127            0.0072010034  -14034.781      445.23548     -13589.545    
     30000   355.42677     -33206.72       132            0.0074845074  -14052.686      448.15145     -13604.534    
     31000   353.33273     -33324.646      132            0.0074845074  -14049.695      445.51111     -13604.184    
     32000   348.79786     -33619.583      123            0.0069742001  -14008.577      439.79317     -13568.784    
     33000   351.08608     -33617.887      128            0.0072577042  -14033.484      442.67835     -13590.806    
     34000   344.25818     -33334.257      124            0.0070309009  -14009.661      434.06917     -13575.592    
     35000   351.70561     -33458.569      136            0.0077113107  -14085.821      443.4595      -13642.362    
     36000   347.21148     -33544.971      126            0.0071443026  -14042.044      437.79293     -13604.251    
     37000   348.84096     -33600.453      132            0.0074845074  -14069.595      439.84751     -13629.748    
     38000   344.05237     -33675.352      128            0.0072577042  -14048.517      433.80966     -13614.707    
     39000   341.78307     -33655.508      126            0.0071443026  -14034.351      430.94834     -13603.403    
     40000   353.77116     -33504.918      136            0.0077113107  -14081.794      446.06392     -13635.73     
     41000   349.79896     -33595.968      129            0.007314405   -14053.946      441.05544     -13612.891    
     42000   350.62559     -33553.269      128            0.0072577042  -14036.6        442.09773     -13594.502    
     43000   345.61949     -33525.229      124            0.0070309009  -14033.187      435.78562     -13597.402    
     44000   357.07511     -33369.939      135            0.0076546099  -14096.062      450.22981     -13645.832    
     45000   360.82153     -33357.386      135            0.0076546099  -14098.335      454.95361     -13643.382    
     46000   352.65726     -33425.562      126            0.0071443026  -14058.731      444.65942     -13614.072    
     47000   355.7014      -33534.417      132            0.0074845074  -14093.617      448.49773     -13645.119    
     48000   353.85481     -33407.07       134            0.0075979091  -14107.949      446.16939     -13661.78     
     49000   357.04138     -33304.796      139            0.0078814131  -14132.348      450.18728     -13682.161    
     50000   362.74818     -33254.854      138            0.0078247123  -14138.151      457.38288     -13680.768    
     51000   363.38141     -32903.945      141            0.0079948148  -14150.382      458.18132     -13692.201    
     52000   357.06249     -32990.05       139            0.0078814131  -14148.143      450.2139      -13697.929    
     53000   359.88512     -32954.012      142            0.0080515156  -14158.725      453.7729      -13704.952    
     54000   364.12806     -33092.672      141            0.0079948148  -14153.597      459.12275     -13694.474    
     55000   353.32699     -33048.228      135            0.0076546099  -14112.375      445.50387     -13666.872    
     56000   355.17387     -33086.413      133            0.0075412083  -14109.589      447.83257     -13661.757    
     57000   353.22951     -33318.597      129            0.007314405   -14085.374      445.38096     -13639.993    
     58000   355.93271     -33334.421      127            0.0072010034  -14073.727      448.78938     -13624.937    
     59000   361.708       -33381.69       129            0.007314405   -14082.217      456.07135     -13626.145    
     60000   357.52136     -32886.456      132            0.0074845074  -14112.346      450.79248     -13661.553    
     61000   356.76068     -33054.083      135            0.0076546099  -14125.369      449.83335     -13675.536    
     62000   354.0428      -33159.91       126            0.0071443026  -14071.273      446.40642     -13624.866    
     63000   359.88745     -33336.847      135            0.0076546099  -14128.259      453.77584     -13674.483    
     64000   348.79944     -33224.392      125            0.0070876017  -14066.899      439.79517     -13627.103    
     65000   349.34802     -33469.805      121            0.0068607985  -14042.538      440.48686     -13602.051    
     66000   352.56969     -33500.044      126            0.0071443026  -14074.174      444.54901     -13629.625    
     67000   353.31489     -33391.542      127            0.0072010034  -14079.961      445.48861     -13634.473    
     68000   356.36525     -33095.481      129            0.007314405   -14097.984      449.33476     -13648.649    
     69000   361.81657     -33132.025      134            0.0075979091  -14130.752      456.20824     -13674.543    
     70000   359.57176     -33186.448      133            0.0075412083  -14130.471      453.37779     -13677.093    
     71000   362.27901     -33036.867      136            0.0077113107  -14144.751      456.79131     -13687.96     
     72000   355.97099     -33504.079      131            0.0074278066  -14111.38       448.83765     -13662.543    
     73000   357.7829      -33470.3        130            0.0073711058  -14113.415      451.12225     -13662.293    
     74000   360.66769     -33205.881      132            0.0074845074  -14124.235      454.75963     -13669.475    
     75000   360.53407     -33505.428      134            0.0075979091  -14149.534      454.59116     -13694.943    
     76000   364.61171     -33386.337      144            0.0081649172  -14204.713      459.73257     -13744.98     
     77000   362.44224     -33274.044      144            0.0081649172  -14203.765      456.99713     -13746.768    
     78000   365.41024     -33138.019      143            0.0081082164  -14216.042      460.73943     -13755.303    
     79000   364.00736     -33104.648      143            0.0081082164  -14222.578      458.97057     -13763.608    
     80000   372.78276     -33130.778      154            0.0087319253  -14285.405      470.03531     -13815.37     
     81000   365.36671     -32996.687      140            0.007938114   -14203.016      460.68455     -13742.331    
     82000   367.32239     -33080.807      144            0.0081649172  -14219          463.15043     -13755.85     
     83000   363.99588     -33389.305      142            0.0080515156  -14199.978      458.9561      -13741.022    
     84000   365.54392     -33258.579      138            0.0078247123  -14180.133      460.90799     -13719.225    
     85000   361.66599     -33075.817      138            0.0078247123  -14186.973      456.01837     -13730.955    
     86000   365.73259     -33012.273      140            0.007938114   -14192.611      461.14588     -13731.465    
     87000   358.73405     -32931.452      136            0.0077113107  -14180.13       452.32154     -13727.808    
     88000   362.4144      -33002.351      146            0.0082783188  -14235.069      456.96203     -13778.107    
     89000   363.02541     -33064.171      138            0.0078247123  -14202.527      457.73244     -13744.795    
     90000   363.07753     -33105.776      140            0.007938114   -14206.258      457.79815     -13748.46     
     91000   367.14937     -32964.06       147            0.0083350197  -14247.412      462.93228     -13784.48     
     92000   367.80914     -32894.907      149            0.0084484213  -14265.309      463.76417     -13801.544    
     93000   364.07051     -32824.649      146            0.0082783188  -14243.552      459.05019     -13784.502    
     94000   369.04949     -33052.939      147            0.0083350197  -14254.522      465.3281      -13789.194    
     95000   372.80596     -32917.679      147            0.0083350197  -14256.759      470.06457     -13786.695    
     96000   362.95037     -32985.641      143            0.0081082164  -14237.336      457.63783     -13779.698    
     97000   366.88067     -32979.315      149            0.0084484213  -14274.975      462.59347     -13812.381    
     98000   370.06994     -33031.792      148            0.0083917205  -14277.998      466.61476     -13811.384    
     99000   374.95375     -32979.787      151            0.0085618229  -14290.358      472.77267     -13817.585    
    100000   367.94596     -32997.947      147            0.0083350197  -14258.66       463.93668     -13794.723    
    101000   360.8328      -32871.076      145            0.008221618   -14254.918      454.96782     -13799.95     
    102000   365.04231     -32632.838      148            0.0083917205  -14279.606      460.27551     -13819.33     
    103000   374.18686     -32583.878      157            0.0089020278  -14335.17       471.80571     -13863.364    
    104000   369.82524     -32589.492      153            0.0086752245  -14327.172      466.30623     -13860.866    
    105000   364.41137     -32650.245      150            0.0085051221  -14305.381      459.47998     -13845.901    
    106000   363.99882     -32615.843      150            0.0085051221  -14309.289      458.95979     -13850.329    
    107000   364.7682      -32599.137      150            0.0085051221  -14309.146      459.92989     -13849.216    
    108000   370.37617     -32493.666      154            0.0087319253  -14319.907      467.00089     -13852.906    
    109000   366.69361     -32523.776      152            0.0086185237  -14322.852      462.35761     -13860.494    
    110000   370.28046     -32545.714      152            0.0086185237  -14320.177      466.88021     -13853.297    
Loop time of 1954.97 on 20 procs for 100000 steps with 880 atoms

Performance: 4.420 ns/day, 5.430 hours/ns, 51.152 timesteps/s, 45.014 katom-step/s
100.0% CPU use with 20 MPI tasks x no OpenMP threads

MPI task timing breakdown:
Section |  min time  |  avg time  |  max time  |%varavg| %total
---------------------------------------------------------------
Pair    | 4.2503     | 8.8714     | 15.738     | 102.7 |  0.45
Bond    | 0.046192   | 0.4074     | 0.81049    |  29.4 |  0.02
Kspace  | 13.164     | 19.968     | 24.745     |  69.5 |  1.02
Neigh   | 1.2159     | 1.2418     | 1.2689     |   1.4 |  0.06
Comm    | 8.0846     | 8.478      | 8.9333     |   9.0 |  0.43
Output  | 0.09058    | 0.15034    | 0.18697    |   6.9 |  0.01
Modify  | 1915       | 1915       | 1915.1     |   0.1 | 97.96
Other   |            | 0.8488     |            |       |  0.04

Nlocal:             44 ave          61 max          24 min
Histogram: 1 1 4 1 2 2 1 3 3 2
Nghost:         2982.9 ave        3120 max        2778 min
Histogram: 1 4 3 0 0 0 1 0 7 4
Neighs:        12436.9 ave       17293 max        6994 min
Histogram: 2 1 3 1 3 1 1 3 4 1

Total # of neighbors = 248737
Ave neighs/atom = 282.65568
Ave special neighs/atom = 7.2727273
Neighbor list builds = 1001992
Dangerous builds = 0

# --- Завершение ---
print "GCMC simulation finished." 
GCMC simulation finished.
Total wall time: 0:32:37
