LAMMPS (29 Aug 2024 - Update 2)
# LAMMPS input script for GCMC simulation of CO2 in MOF-5

variable press equal ${p}
variable press equal 0.1

# --- Инициализация ---
units           real
atom_style      full
boundary        p p p

# --- Определение стилей потенциалов ---
# Важно: эти стили должны соответствовать формату коэффициентов в data.MOF5_charged_simple
# и добавленным коэффициентам для CO2.
pair_style      lj/cut/coul/long 12.0 # Катофф 12 Ангстрем для LJ и кулона
bond_style      harmonic
angle_style     hybrid fourier cosine/periodic harmonic # MOF-5 использует fourier и cosine/periodic, CO2 - harmonic
dihedral_style  harmonic # Предполагаем, что диэдрали в MOF-5 совместимы с harmonic (K d n)
improper_style  fourier # Предполагаем, что несобственные углы в MOF-5 совместимы с umbrella (K chi0)

# --- Чтение данных MOF-5 ---
# Добавляем 2 новых типа атомов (для C и O в CO2), 1 новый тип связи (C=O), 1 новый тип угла (O=C=O)
read_data       data.MOF5_charged_simple extra/atom/types 2 extra/bond/types 1 extra/angle/types 1
Reading data file ...
  triclinic box = (0 0 0) to (26.029363 26.031584 26.028346) with tilt (0.003152 -0.002169 0.002663)
  2 by 5 by 2 MPI processor grid
  reading atoms ...
  424 atoms
  scanning bonds ...
  4 = max bonds/atom
  scanning angles ...
  6 = max angles/atom
  scanning dihedrals ...
  8 = max dihedrals/atom
  scanning impropers ...
  3 = max impropers/atom
  triclinic box = (0 0 0) to (26.029363 26.031584 26.028346) with tilt (0.003152 -0.002169 0.002663)
  2 by 5 by 2 MPI processor grid
  reading bonds ...
  512 bonds
  reading angles ...
  912 angles
  reading dihedrals ...
  960 dihedrals
  reading impropers ...
  576 impropers
Finding 1-2 1-3 1-4 neighbors ...
  special bond factors lj:    0        0        0       
  special bond factors coul:  0        0        0       
     4 = max # of 1-2 neighbors
    12 = max # of 1-3 neighbors
    24 = max # of 1-4 neighbors
    22 = max # of special neighbors
  special bonds CPU = 0.001 seconds
  read_data CPU = 0.020 seconds

# --- Определение параметров для CO2 ---
# Массы для новых типов атомов (6: C_CO2, 7: O_CO2)
mass            6 12.011   # C in CO2
mass            7 15.9994  # O in CO2

# Pair Coeffs для CO2 (MOF-5 pair_coeffs читаются из data-файла)
# pair_coeff I J epsilon sigma
pair_coeff      6 6 0.0514 2.85    # C_CO2 - C_CO2
pair_coeff      7 7 0.1600 3.02    # O_CO2 - O_CO2

# Правила смешивания для межмолекулярных взаимодействий (например, MOF-CO2)
# Lorentz-Berthelot по умолчанию для lj/cut/coul/long
pair_modify     mix arithmetic

# Bond Coeffs для CO2 (тип связи 7)
# bond_coeff Type K r0
bond_coeff      7 1000.0 1.16   # C=O

# Angle Coeffs для CO2 (тип угла 10)
# angle_coeff Type K theta0 (для стиля harmonic)
angle_coeff     10 harmonic 100.0 180.0 # O=C=O

# --- Настройки дальнодействующих взаимодействий ---
kspace_style    pppm 1.0e-5

# --- Определение молекулы CO2 ---
molecule        co2mol CO2.txt
Read molecule template co2mol:
# CO2 molecule template for LAMMPS
  1 molecules
  0 fragments
  3 atoms with max type 7
  2 bonds with max type 7
  1 angles with max type 10
  0 dihedrals with max type 0
  0 impropers with max type 0

# --- Настройки GCMC ---
variable        T equal 298.0       # Температура в Кельвинах
variable        P equal 0.1         # Давление в атмосферах
variable        fug_coeff equal 1.0 # Коэффициент фугитивности (для идеального газа = 1.0)
variable        seed equal 12345    # Начальное число для генератора случайных чисел

# Группа для атомов CO2 (типы 6 и 7)
group           co2_atoms type 6 7
0 atoms in group co2_atoms


# Variables for analysis
variable N_co2  equal count(co2_atoms)/3
variable ads_density equal v_N_co2/vol

dump            dall all atom 100 dumps_T298K/dump_npt_${press}.lammpstrj
dump            dall all atom 100 dumps_T298K/dump_npt_0.1.lammpstrj

fix             mynpt all nvt temp 298.0 298.0 100.0

# Thermo output
thermo          100
thermo_style    custom step temp press vol density etotal
run             10000
PPPM initialization ...
WARNING: System is not charge neutral, net charge = 0.0008 (../kspace.cpp:327)
  using 12-bit tables for long-range coulomb (../kspace.cpp:342)
  G vector (1/distance) = 0.2438405
  grid = 16 16 16
  stencil order = 5
  estimated absolute RMS force accuracy = 0.002249822
  estimated relative force accuracy = 6.7752721e-06
  using double precision KISS FFT
  3d grid and FFT values/proc = 2250 256
Generated 21 of 21 mixed pair_coeff terms from arithmetic mixing rule
Neighbor list info ...
  update: every = 1 steps, delay = 0 steps, check = yes
  max neighbors/atom: 2000, page size: 100000
  master list distance cutoff = 14
  ghost atom cutoff = 14
  binsize = 7, bins = 4 4 4
  1 neighbor lists, perpetual/occasional/extra = 1 0 0
  (1) pair lj/cut/coul/long, perpetual
      attributes: half, newton on
      pair build: half/bin/newton/tri
      stencil: half/bin/3d/tri
      bin: standard
WARNING: Inconsistent image flags (../domain.cpp:1051)
Per MPI rank memory allocation (min/avg/max) = 13.24 | 13.45 | 13.94 Mbytes
   Step          Temp          Press          Volume        Density         TotEng    
         0   0             -31876.762      17636.431      0.57988585    -12893.244    
       100   213.49407     -30002.093      17636.431      0.57988585    -12860.54     
       200   272.54824     -36267.945      17636.431      0.57988585    -12824.296    
       300   247.31771     -30813.89       17636.431      0.57988585    -12791.181    
       400   365.44045     -40200.501      17636.431      0.57988585    -12758.574    
       500   390.04847     -35283.076      17636.431      0.57988585    -12765.465    
       600   405.37642     -31390.924      17636.431      0.57988585    -12761.03     
       700   316.23977     -25622.144      17636.431      0.57988585    -12783.716    
       800   416.25121     -28441.627      17636.431      0.57988585    -12783.932    
       900   355.94793     -31932.299      17636.431      0.57988585    -12779.66     
      1000   253.89126     -30645.299      17636.431      0.57988585    -12780.656    
      1100   311.85955     -33842.993      17636.431      0.57988585    -12769.096    
      1200   172.21309     -29210.083      17636.431      0.57988585    -12774.23     
      1300   261.17774     -32908.143      17636.431      0.57988585    -12765.851    
      1400   193.05251     -27679.149      17636.431      0.57988585    -12769.79     
      1500   261.28539     -30414.605      17636.431      0.57988585    -12778.365    
      1600   322.4943      -22538.194      17636.431      0.57988585    -12769.35     
      1700   351.52921     -35417.481      17636.431      0.57988585    -12780.339    
      1800   365.10559     -34711.255      17636.431      0.57988585    -12769.334    
      1900   380.46949     -35845.467      17636.431      0.57988585    -12784.654    
      2000   326.48505     -30493.599      17636.431      0.57988585    -12767.625    
      2100   327.2667      -34072.111      17636.431      0.57988585    -12766.415    
      2200   310.6237      -31475.195      17636.431      0.57988585    -12762.71     
      2300   323.90534     -31915.316      17636.431      0.57988585    -12777.829    
      2400   218.01193     -32678.623      17636.431      0.57988585    -12802.822    
      2500   283.32791     -32596.566      17636.431      0.57988585    -12796.599    
      2600   290.23107     -37572.147      17636.431      0.57988585    -12766.401    
      2700   217.0785      -34562.789      17636.431      0.57988585    -12765.55     
      2800   307.10256     -33607.205      17636.431      0.57988585    -12758.686    
      2900   325.65223     -27852.054      17636.431      0.57988585    -12779.106    
      3000   255.06952     -36026.211      17636.431      0.57988585    -12783.72     
      3100   286.03547     -27519.889      17636.431      0.57988585    -12781.688    
      3200   249.3152      -33250.849      17636.431      0.57988585    -12782.257    
      3300   298.10348     -31548.866      17636.431      0.57988585    -12766.102    
      3400   228.61736     -38024.621      17636.431      0.57988585    -12776.664    
      3500   268.22819     -33045.255      17636.431      0.57988585    -12774.557    
      3600   274.34868     -34273.869      17636.431      0.57988585    -12784.251    
      3700   292.16291     -27342.856      17636.431      0.57988585    -12762.182    
      3800   357.24661     -33896.769      17636.431      0.57988585    -12727.1      
      3900   296.14003     -36081.391      17636.431      0.57988585    -12731.996    
      4000   305.60276     -32084.417      17636.431      0.57988585    -12757.308    
      4100   285.13207     -31298.873      17636.431      0.57988585    -12765.421    
      4200   266.44121     -35148.038      17636.431      0.57988585    -12776.657    
      4300   314.49262     -35278.125      17636.431      0.57988585    -12780.243    
      4400   265.00839     -28621.045      17636.431      0.57988585    -12787.452    
      4500   299.4861      -32478.362      17636.431      0.57988585    -12764.908    
      4600   263.60023     -31394.134      17636.431      0.57988585    -12748.302    
      4700   270.80344     -35371.467      17636.431      0.57988585    -12741.608    
      4800   304.95215     -32544.717      17636.431      0.57988585    -12767.227    
      4900   236.24084     -37231.923      17636.431      0.57988585    -12781.899    
      5000   328.68536     -29248.715      17636.431      0.57988585    -12775.562    
      5100   272.48929     -34187.864      17636.431      0.57988585    -12781.881    
      5200   334.10832     -31585.391      17636.431      0.57988585    -12765.856    
      5300   318.57669     -34075.112      17636.431      0.57988585    -12753.698    
      5400   292.32442     -31301.05       17636.431      0.57988585    -12744.504    
      5500   314.87173     -35501.043      17636.431      0.57988585    -12769.136    
      5600   266.88685     -33302.918      17636.431      0.57988585    -12797.694    
      5700   323.94523     -33205.95       17636.431      0.57988585    -12790.478    
      5800   237.61382     -33798.19       17636.431      0.57988585    -12774.329    
      5900   332.54463     -32095.803      17636.431      0.57988585    -12761.904    
      6000   281.28815     -32730.647      17636.431      0.57988585    -12755.646    
      6100   293.70692     -32443.841      17636.431      0.57988585    -12794.791    
      6200   256.1666      -37397.202      17636.431      0.57988585    -12810.738    
      6300   265.37933     -33025.188      17636.431      0.57988585    -12799.324    
      6400   214.60104     -34052.631      17636.431      0.57988585    -12772.706    
      6500   298.02802     -31170.353      17636.431      0.57988585    -12764.77     
      6600   231.58585     -36267.522      17636.431      0.57988585    -12773.825    
      6700   253.48993     -31217.406      17636.431      0.57988585    -12788.31     
      6800   269.8179      -33268.514      17636.431      0.57988585    -12819.231    
      6900   247.47577     -32728.583      17636.431      0.57988585    -12816.453    
      7000   301.42123     -36271.898      17636.431      0.57988585    -12771.54     
      7100   286.51969     -31797.369      17636.431      0.57988585    -12772.745    
      7200   325.68605     -34234.769      17636.431      0.57988585    -12761.944    
      7300   289.75481     -31579.728      17636.431      0.57988585    -12775.933    
      7400   333.21283     -31387.144      17636.431      0.57988585    -12791.817    
      7500   290.84493     -31676.643      17636.431      0.57988585    -12805.174    
      7600   311.61123     -34178.555      17636.431      0.57988585    -12795.916    
      7700   345.15849     -33083.813      17636.431      0.57988585    -12759.225    
      7800   308.70421     -34202.632      17636.431      0.57988585    -12754.992    
      7900   300.443       -32515.415      17636.431      0.57988585    -12771.349    
      8000   288.06005     -29540.264      17636.431      0.57988585    -12793.239    
      8100   257.29593     -32244.292      17636.431      0.57988585    -12804.199    
      8200   261.11901     -30302.229      17636.431      0.57988585    -12762.247    
      8300   319.15831     -35566.253      17636.431      0.57988585    -12739.472    
      8400   266.209       -31748.322      17636.431      0.57988585    -12758.946    
      8500   325.11198     -34102.356      17636.431      0.57988585    -12777.883    
      8600   288.23561     -31735.927      17636.431      0.57988585    -12790.45     
      8700   347.97179     -32997.755      17636.431      0.57988585    -12780        
      8800   344.56461     -27208.14       17636.431      0.57988585    -12758.036    
      8900   300.63989     -32695.532      17636.431      0.57988585    -12735.488    
      9000   355.69934     -30869.155      17636.431      0.57988585    -12751.16     
      9100   261.38108     -35319.901      17636.431      0.57988585    -12784.849    
      9200   291.93206     -33252.701      17636.431      0.57988585    -12786.072    
      9300   300.47813     -34530.667      17636.431      0.57988585    -12783.064    
      9400   298.40506     -30948.28       17636.431      0.57988585    -12764.678    
      9500   318.90473     -33394.735      17636.431      0.57988585    -12740.765    
      9600   277.98143     -30349.893      17636.431      0.57988585    -12734.144    
      9700   291.53667     -32042.773      17636.431      0.57988585    -12772.109    
      9800   247.75586     -31428.873      17636.431      0.57988585    -12795.129    
      9900   266.28646     -36110.545      17636.431      0.57988585    -12788.713    
     10000   257.51625     -34632.253      17636.431      0.57988585    -12766.387    
Loop time of 2.41626 on 20 procs for 10000 steps with 424 atoms

Performance: 357.577 ns/day, 0.067 hours/ns, 4138.620 timesteps/s, 1.755 Matom-step/s
99.9% CPU use with 20 MPI tasks x no OpenMP threads

MPI task timing breakdown:
Section |  min time  |  avg time  |  max time  |%varavg| %total
---------------------------------------------------------------
Pair    | 0.019027   | 0.19062    | 0.43758    |  31.7 |  7.89
Bond    | 0.0057676  | 0.036236   | 0.074978   |  11.6 |  1.50
Kspace  | 1.1923     | 1.4564     | 1.6633     |  12.2 | 60.28
Neigh   | 0.020105   | 0.020995   | 0.02219    |   0.4 |  0.87
Comm    | 0.59388    | 0.61904    | 0.65497    |   2.3 | 25.62
Output  | 0.0048221  | 0.0071729  | 0.0095619  |   1.7 |  0.30
Modify  | 0.016833   | 0.03952    | 0.053431   |   5.7 |  1.64
Other   |            | 0.04625    |            |       |  1.91

Nlocal:           21.2 ave          38 max           2 min
Histogram: 4 3 1 0 0 3 1 0 1 7
Nghost:        1620.65 ave        1749 max        1445 min
Histogram: 8 0 0 0 0 0 0 0 4 8
Neighs:        2667.55 ave        4830 max         261 min
Histogram: 4 3 1 0 2 1 1 0 2 6

Total # of neighbors = 53351
Ave neighs/atom = 125.82783
Ave special neighs/atom = 12.943396
Neighbor list builds = 59
Dangerous builds = 0
unfix           mynpt


# Fix GCMC
# N: выполнять GCMC каждые N шагов
# Nexchange: количество попыток обмена (вставка/удаление)
# Ntranslate_rotate_mol: количество попыток трансляции/вращения молекулы
# Nrigidbody_... : 0, так как CO2 у нас гибкий
# mol co2mol: используемый шаблон молекулы
# full_energy: пересчитывать полную энергию системы (рекомендуется)
# pressure ${P}: давление (LAMMPS вычислит химический потенциал)
# displace: максимальное смещение для трансляции молекулы (в Ангстремах)
#fix             gcmc_run all gcmc 100 100 100 0 ${seed} ${T} ${P} ${fug_coeff} mol co2mol full_energy displace 0.5
fix             GCMC co2_atoms gcmc 100 1000 0 0 12345 298.0 -5.0 0.5 mol co2mol pressure ${press} full_energy group co2_atoms
fix             GCMC co2_atoms gcmc 100 1000 0 0 12345 298.0 -5.0 0.5 mol co2mol pressure 0.1 full_energy group co2_atoms

# --- Настройки вывода ---
#thermo_style    custom step temp press pe etotal natoms ncmc_insert ncmc_delete ncmc_trans ncmc_rotate ncmc_attempt ncmc_accept atoms_in_gcmc_mol


thermo          1000
thermo_style    custom step temp press v_N_co2 v_ads_density pe ke etotal
dump            gcmc_dump all atom 500 dumps_T298K/dump.gcmc_mof5_co2_${press}.lammpstrj
dump            gcmc_dump all atom 500 dumps_T298K/dump.gcmc_mof5_co2_0.1.lammpstrj

# --- Запуск симуляции ---
# Для GCMC обычно не нужен MD integrator для всей системы, если только не изучается динамика каркаса.
# Если каркас должен быть подвижен, добавьте fix nvt для атомов MOF-5.
# Например, если атомы MOF-5 должны оставаться фиксированными:
# group mof_atoms type <= 5
# fix freeze_mof mof_atoms setforce 0.0 0.0 0.0
# Однако, для GCMC лучше, чтобы каркас был термостатирован, если он не абсолютно жесткий.
# Если вы хотите просто провести GCMC без MD шагов для каркаса:
# run 0 post no # Это позволит fix gcmc работать без MD шагов
# Но обычно GCMC совмещают с MD:
timestep        1.0 # фемтосекунды (если есть MD)
run             100000 # Количество шагов GCMC/MD
WARNING: No fixes with time integration, atoms won't move (../verlet.cpp:60)
PPPM initialization ...
  using 12-bit tables for long-range coulomb (../kspace.cpp:342)
  G vector (1/distance) = 0.2438405
  grid = 16 16 16
  stencil order = 5
  estimated absolute RMS force accuracy = 0.002249822
  estimated relative force accuracy = 6.7752721e-06
  using double precision KISS FFT
  3d grid and FFT values/proc = 2250 256
Generated 21 of 21 mixed pair_coeff terms from arithmetic mixing rule
0 atoms in group FixGCMC:gcmc_exclusion_group:GCMC
0 atoms in group FixGCMC:rotation_gas_atoms:GCMC
WARNING: Neighbor exclusions used with KSpace solver may give inconsistent Coulombic energies (../neighbor.cpp:666)
WARNING: Inconsistent image flags (../domain.cpp:1051)
Per MPI rank memory allocation (min/avg/max) = 14.24 | 14.46 | 14.93 Mbytes
   Step          Temp          Press         v_N_co2     v_ads_density      PotEng         KinEng         TotEng    
     10000   257.51625     -34632.253      0              0             -13091.084      324.69777     -12766.387    
     11000   291.97834     -34553.988      43             0.002438135   -13419.618      368.15043     -13051.468    
     12000   293.34429     -34221.527      49             0.0027783399  -13485.062      369.87273     -13115.189    
     13000   298.24919     -33909.329      55             0.0031185448  -13554.528      376.05723     -13178.471    
     14000   298.14892     -34104.019      53             0.0030051431  -13546.386      375.9308      -13170.455    
     15000   306.34202     -33819.141      60             0.0034020488  -13602.841      386.26134     -13216.58     
     16000   304.3133      -34014.46       62             0.0035154505  -13620.168      383.70336     -13236.465    
     17000   304.0774      -34098.878      65             0.0036855529  -13656.055      383.40592     -13272.649    
     18000   305.27749     -33744.761      68             0.0038556553  -13679.858      384.91909     -13294.939    
     19000   303.4771      -33887.666      70             0.003969057   -13695.426      382.64901     -13312.777    
     20000   313.02103     -33722.733      74             0.0041958602  -13724.366      394.68278     -13329.683    
     21000   314.24269     -33568.621      74             0.0041958602  -13740.947      396.22316     -13344.724    
     22000   318.45462     -33573.655      79             0.0044793643  -13778.915      401.53391     -13377.381    
     23000   316.08099     -33585.342      75             0.004252561   -13752.985      398.54103     -13354.444    
     24000   323.97674     -33368.954      85             0.0048195692  -13825.805      408.49666     -13417.308    
     25000   324.61288     -33636.526      86             0.00487627    -13835.166      409.29875     -13425.867    
     26000   317.31614     -33573.169      83             0.0047061676  -13822.82       400.09842     -13422.722    
     27000   313.97785     -33704.44       76             0.0043092619  -13778.521      395.88922     -13382.632    
     28000   318.27899     -33567.915      85             0.0048195692  -13845.079      401.31246     -13443.767    
     29000   320.0344      -33303.085      84             0.0047628684  -13842.934      403.52583     -13439.408    
     30000   311.68549     -33587.312      78             0.0044226635  -13797.606      392.99882     -13404.607    
     31000   311.18454     -33486.081      75             0.004252561   -13782.325      392.36718     -13389.958    
     32000   309.89028     -33579.78       77             0.0043659627  -13804.932      390.73528     -13414.196    
     33000   311.83887     -33610.416      81             0.0045927659  -13836.686      393.19222     -13443.494    
     34000   316.02234     -33842.496      84             0.0047628684  -13864.802      398.46708     -13466.335    
     35000   314.94775     -33709.845      86             0.00487627    -13886.263      397.11215     -13489.151    
     36000   314.95365     -33849.899      87             0.0049329708  -13894.816      397.11959     -13497.696    
     37000   315.52428     -33788.095      88             0.0049896716  -13898.049      397.8391      -13500.21     
     38000   328.226       -33696.503      94             0.0053298765  -13933.737      413.85447     -13519.882    
     39000   314.81372     -33766.569      88             0.0049896716  -13894.658      396.94316     -13497.714    
     40000   316.42174     -33610.951      85             0.0048195692  -13882.264      398.97069     -13483.293    
     41000   318.30503     -33702.279      93             0.0052731757  -13930.045      401.34529     -13528.699    
     42000   319.74553     -33678.648      90             0.0051030733  -13923.563      403.16159     -13520.401    
     43000   320.47977     -33741.189      91             0.0051597741  -13926.356      404.08739     -13522.269    
     44000   318.58828     -33754.598      86             0.00487627    -13878.13       401.70244     -13476.428    
     45000   317.31321     -33753.056      88             0.0049896716  -13897.239      400.09472     -13497.144    
     46000   315.37509     -33815.487      86             0.00487627    -13886.687      397.65098     -13489.036    
     47000   312.48855     -33854.361      86             0.00487627    -13888.582      394.01139     -13494.57     
     48000   312.2282      -33844.004      84             0.0047628684  -13867.636      393.68312     -13473.953    
     49000   319.94878     -33776.111      93             0.0052731757  -13933.227      403.41787     -13529.809    
     50000   316.30867     -33725.838      88             0.0049896716  -13900.39       398.82811     -13501.562    
     51000   316.76007     -33671.353      89             0.0050463724  -13909.958      399.39727     -13510.561    
     52000   315.46326     -33748.239      86             0.00487627    -13887.856      397.76215     -13490.094    
     53000   313.66043     -33487.959      83             0.0047061676  -13869.443      395.489       -13473.954    
     54000   315.6896      -33619.196      86             0.00487627    -13885.221      398.04754     -13487.174    
     55000   318.02856     -33743.266      86             0.00487627    -13885.698      400.99669     -13484.701    
     56000   318.62187     -33693.22       93             0.0052731757  -13935.745      401.74479     -13534.001    
     57000   311.65023     -33819.774      84             0.0047628684  -13875.174      392.95437     -13482.219    
     58000   314.02924     -33843.397      85             0.0048195692  -13881.431      395.95402     -13485.477    
     59000   314.56369     -33775.714      88             0.0049896716  -13908.945      396.6279      -13512.317    
     60000   313.48025     -33604.471      85             0.0048195692  -13895.816      395.26181     -13500.554    
     61000   318.68887     -33850.027      91             0.0051597741  -13935.935      401.82927     -13534.106    
     62000   314.79927     -33837.154      85             0.0048195692  -13892.616      396.92493     -13495.691    
     63000   314.49314     -33891.914      84             0.0047628684  -13883.115      396.53894     -13486.576    
     64000   315.46389     -33821.727      83             0.0047061676  -13873.86       397.76294     -13476.097    
     65000   317.66957     -33487.392      90             0.0051030733  -13930.788      400.54405     -13530.244    
     66000   319.84728     -33490.236      94             0.0053298765  -13956.089      403.28989     -13552.799    
     67000   323.94229     -33608.99       94             0.0053298765  -13959.898      408.45321     -13551.445    
     68000   314.94147     -33629.467      84             0.0047628684  -13884.15       397.10424     -13487.046    
     69000   318.2492      -33740.893      90             0.0051030733  -13923.612      401.27489     -13522.337    
     70000   320.02411     -33671.676      90             0.0051030733  -13930.559      403.51285     -13527.047    
     71000   316.05766     -33608.162      88             0.0049896716  -13909.158      398.51162     -13510.646    
     72000   318.34403     -33567.319      85             0.0048195692  -13888.84       401.39446     -13487.445    
     73000   320.63378     -33852.986      87             0.0049329708  -13898.851      404.28157     -13494.569    
     74000   321.44476     -33808.199      86             0.00487627    -13895.247      405.30412     -13489.943    
     75000   315.96442     -33726.646      83             0.0047061676  -13883.81       398.39405     -13485.416    
     76000   319.79162     -33719.349      87             0.0049329708  -13913.933      403.21971     -13510.714    
     77000   321.60919     -33624.743      90             0.0051030733  -13935.729      405.51144     -13530.218    
     78000   324.14767     -33719.663      93             0.0052731757  -13954.407      408.71217     -13545.694    
     79000   324.46251     -33786.38       90             0.0051030733  -13917.358      409.10915     -13508.249    
     80000   321.06734     -33728.976      89             0.0050463724  -13921.912      404.82823     -13517.083    
     81000   315.59415     -33723.899      85             0.0048195692  -13898.371      397.92719     -13500.444    
     82000   317.39486     -33723.641      85             0.0048195692  -13897.792      400.19767     -13497.595    
     83000   322.00904     -33671.727      90             0.0051030733  -13930.111      406.01562     -13524.095    
     84000   321.46981     -33708.982      89             0.0050463724  -13920.522      405.33571     -13515.186    
     85000   316.23007     -33810.471      83             0.0047061676  -13883.257      398.72901     -13484.528    
     86000   320.57248     -33778.34       90             0.0051030733  -13935.538      404.20428     -13531.333    
     87000   318.7603      -33592.134      89             0.0050463724  -13934.765      401.91933     -13532.846    
     88000   321.25425     -33793.618      93             0.0052731757  -13951.508      405.06391     -13546.444    
     89000   330.5862      -33749.189      98             0.0055566798  -14009.029      416.8304      -13592.199    
     90000   328.42903     -33721.489      95             0.0053865773  -13987.569      414.11046     -13573.458    
     91000   326.70747     -33766.737      95             0.0053865773  -13990.946      411.93978     -13579.006    
     92000   325.48081     -33665.558      92             0.0052164749  -13973.294      410.39311     -13562.901    
     93000   329.83838     -33642.846      97             0.005499979   -14005.746      415.88749     -13589.859    
     94000   322.72319     -33603.905      95             0.0053865773  -13998.785      406.91607     -13591.869    
     95000   320.50256     -33699.398      92             0.0052164749  -13976.453      404.11612     -13572.337    
     96000   324.00085     -33693.679      97             0.005499979   -14000.254      408.52705     -13591.727    
     97000   323.16153     -33721.18       95             0.0053865773  -13996.945      407.46876     -13589.476    
     98000   322.49067     -33693.101      98             0.0055566798  -14024.765      406.62289     -13618.142    
     99000   316.75635     -33804.454      89             0.0050463724  -13968.507      399.39258     -13569.114    
    100000   320.9437      -33857.575      94             0.0053298765  -13994.648      404.67234     -13589.976    
    101000   317.50488     -33846.686      92             0.0052164749  -13982.403      400.33639     -13582.067    
    102000   326.40306     -33770.868      96             0.0054432781  -14006.429      411.55595     -13594.873    
    103000   323.00183     -33821.074      97             0.005499979   -14021.858      407.26741     -13614.59     
    104000   322.34504     -33788.384      96             0.0054432781  -14015.204      406.43926     -13608.764    
    105000   318.38599     -33837.223      90             0.0051030733  -13962.533      401.44737     -13561.086    
    106000   318.95048     -33840.862      91             0.0051597741  -13968.454      402.15912     -13566.295    
    107000   316.30322     -33816.694      86             0.00487627    -13941.364      398.82125     -13542.543    
    108000   318.67464     -33816.065      88             0.0049896716  -13953.679      401.81132     -13551.868    
    109000   319.58578     -33784.99       89             0.0050463724  -13964.245      402.96017     -13561.285    
    110000   318.46704     -33909.471      90             0.0051030733  -13966.713      401.54956     -13565.163    
Loop time of 1477.02 on 20 procs for 100000 steps with 694 atoms

Performance: 5.850 ns/day, 4.103 hours/ns, 67.704 timesteps/s, 46.987 katom-step/s
100.0% CPU use with 20 MPI tasks x no OpenMP threads

MPI task timing breakdown:
Section |  min time  |  avg time  |  max time  |%varavg| %total
---------------------------------------------------------------
Pair    | 2.5305     | 5.5702     | 10.454     |  83.0 |  0.38
Bond    | 0.05098    | 0.38478    | 0.67554    |  29.3 |  0.03
Kspace  | 12.097     | 17.308     | 20.971     |  51.5 |  1.17
Neigh   | 0.88285    | 0.90456    | 0.93632    |   1.9 |  0.06
Comm    | 7.6393     | 8.1713     | 8.6297     |   8.5 |  0.55
Output  | 0.077394   | 0.12237    | 0.15456    |   6.4 |  0.01
Modify  | 1443.8     | 1443.9     | 1443.9     |   0.1 | 97.76
Other   |            | 0.6919     |            |       |  0.05

Nlocal:           34.7 ave          55 max          13 min
Histogram: 3 1 2 0 3 3 0 3 4 1
Nghost:        2423.55 ave        2565 max        2226 min
Histogram: 7 1 0 0 0 0 0 0 4 8
Neighs:        7547.25 ave       12001 max        2942 min
Histogram: 2 2 2 1 3 2 0 4 3 1

Total # of neighbors = 150945
Ave neighs/atom = 217.5
Ave special neighs/atom = 8.685879
Neighbor list builds = 1001992
Dangerous builds = 0

# --- Завершение ---
print "GCMC simulation finished." 
GCMC simulation finished.
Total wall time: 0:24:39
