LAMMPS (29 Aug 2024 - Update 2)
# LAMMPS input script for GCMC simulation of CO2 in MOF-5

variable press equal ${p}
variable press equal 10.0

# --- Инициализация ---
units           real
atom_style      full
boundary        p p p

# --- Определение стилей потенциалов ---
# Важно: эти стили должны соответствовать формату коэффициентов в data.MOF5_charged_simple
# и добавленным коэффициентам для CO2.
pair_style      lj/cut/coul/long 12.0 # Катофф 12 Ангстрем для LJ и кулона
bond_style      harmonic
angle_style     hybrid fourier cosine/periodic harmonic # MOF-5 использует fourier и cosine/periodic, CO2 - harmonic
dihedral_style  harmonic # Предполагаем, что диэдрали в MOF-5 совместимы с harmonic (K d n)
improper_style  fourier # Предполагаем, что несобственные углы в MOF-5 совместимы с umbrella (K chi0)

# --- Чтение данных MOF-5 ---
# Добавляем 2 новых типа атомов (для C и O в CO2), 1 новый тип связи (C=O), 1 новый тип угла (O=C=O)
read_data       data.MOF5_charged_simple extra/atom/types 2 extra/bond/types 1 extra/angle/types 1
Reading data file ...
  triclinic box = (0 0 0) to (26.029363 26.031584 26.028346) with tilt (0.003152 -0.002169 0.002663)
  2 by 5 by 2 MPI processor grid
  reading atoms ...
  424 atoms
  scanning bonds ...
  4 = max bonds/atom
  scanning angles ...
  6 = max angles/atom
  scanning dihedrals ...
  8 = max dihedrals/atom
  scanning impropers ...
  3 = max impropers/atom
  triclinic box = (0 0 0) to (26.029363 26.031584 26.028346) with tilt (0.003152 -0.002169 0.002663)
  2 by 5 by 2 MPI processor grid
  reading bonds ...
  512 bonds
  reading angles ...
  912 angles
  reading dihedrals ...
  960 dihedrals
  reading impropers ...
  576 impropers
Finding 1-2 1-3 1-4 neighbors ...
  special bond factors lj:    0        0        0       
  special bond factors coul:  0        0        0       
     4 = max # of 1-2 neighbors
    12 = max # of 1-3 neighbors
    24 = max # of 1-4 neighbors
    22 = max # of special neighbors
  special bonds CPU = 0.001 seconds
  read_data CPU = 0.016 seconds

# --- Определение параметров для CO2 ---
# Массы для новых типов атомов (6: C_CO2, 7: O_CO2)
mass            6 12.011   # C in CO2
mass            7 15.9994  # O in CO2

# Pair Coeffs для CO2 (MOF-5 pair_coeffs читаются из data-файла)
# pair_coeff I J epsilon sigma
pair_coeff      6 6 0.0514 2.85    # C_CO2 - C_CO2
pair_coeff      7 7 0.1600 3.02    # O_CO2 - O_CO2

# Правила смешивания для межмолекулярных взаимодействий (например, MOF-CO2)
# Lorentz-Berthelot по умолчанию для lj/cut/coul/long
pair_modify     mix arithmetic

# Bond Coeffs для CO2 (тип связи 7)
# bond_coeff Type K r0
bond_coeff      7 1000.0 1.16   # C=O

# Angle Coeffs для CO2 (тип угла 10)
# angle_coeff Type K theta0 (для стиля harmonic)
angle_coeff     10 harmonic 100.0 180.0 # O=C=O

# --- Настройки дальнодействующих взаимодействий ---
kspace_style    pppm 1.0e-5

# --- Определение молекулы CO2 ---
molecule        co2mol CO2.txt
Read molecule template co2mol:
# CO2 molecule template for LAMMPS
  1 molecules
  0 fragments
  3 atoms with max type 7
  2 bonds with max type 7
  1 angles with max type 10
  0 dihedrals with max type 0
  0 impropers with max type 0

# --- Настройки GCMC ---
variable        T equal 298.0       # Температура в Кельвинах
variable        P equal 0.1         # Давление в атмосферах
variable        fug_coeff equal 1.0 # Коэффициент фугитивности (для идеального газа = 1.0)
variable        seed equal 12345    # Начальное число для генератора случайных чисел

# Группа для атомов CO2 (типы 6 и 7)
group           co2_atoms type 6 7
0 atoms in group co2_atoms


# Variables for analysis
variable N_co2  equal count(co2_atoms)/3
variable ads_density equal v_N_co2/vol

dump            dall all atom 100 dumps_T298K/dump_npt_${press}.lammpstrj
dump            dall all atom 100 dumps_T298K/dump_npt_10.lammpstrj

fix             mynpt all nvt temp 298.0 298.0 100.0

# Thermo output
thermo          100
thermo_style    custom step temp press vol density etotal
run             10000
PPPM initialization ...
WARNING: System is not charge neutral, net charge = 0.0008 (../kspace.cpp:327)
  using 12-bit tables for long-range coulomb (../kspace.cpp:342)
  G vector (1/distance) = 0.2438405
  grid = 16 16 16
  stencil order = 5
  estimated absolute RMS force accuracy = 0.002249822
  estimated relative force accuracy = 6.7752721e-06
  using double precision KISS FFT
  3d grid and FFT values/proc = 2250 256
Generated 21 of 21 mixed pair_coeff terms from arithmetic mixing rule
Neighbor list info ...
  update: every = 1 steps, delay = 0 steps, check = yes
  max neighbors/atom: 2000, page size: 100000
  master list distance cutoff = 14
  ghost atom cutoff = 14
  binsize = 7, bins = 4 4 4
  1 neighbor lists, perpetual/occasional/extra = 1 0 0
  (1) pair lj/cut/coul/long, perpetual
      attributes: half, newton on
      pair build: half/bin/newton/tri
      stencil: half/bin/3d/tri
      bin: standard
WARNING: Inconsistent image flags (../domain.cpp:1051)
Per MPI rank memory allocation (min/avg/max) = 13.24 | 13.45 | 13.94 Mbytes
   Step          Temp          Press          Volume        Density         TotEng    
         0   0             -31876.762      17636.431      0.57988585    -12893.244    
       100   213.49407     -30002.093      17636.431      0.57988585    -12860.54     
       200   272.54824     -36267.945      17636.431      0.57988585    -12824.296    
       300   247.31771     -30813.89       17636.431      0.57988585    -12791.181    
       400   365.44045     -40200.501      17636.431      0.57988585    -12758.574    
       500   390.04847     -35283.076      17636.431      0.57988585    -12765.465    
       600   405.37642     -31390.924      17636.431      0.57988585    -12761.03     
       700   316.23977     -25622.144      17636.431      0.57988585    -12783.716    
       800   416.25121     -28441.627      17636.431      0.57988585    -12783.932    
       900   355.94793     -31932.299      17636.431      0.57988585    -12779.66     
      1000   253.89126     -30645.299      17636.431      0.57988585    -12780.656    
      1100   311.85955     -33842.993      17636.431      0.57988585    -12769.096    
      1200   172.21309     -29210.083      17636.431      0.57988585    -12774.23     
      1300   261.17774     -32908.143      17636.431      0.57988585    -12765.851    
      1400   193.05251     -27679.149      17636.431      0.57988585    -12769.79     
      1500   261.28539     -30414.605      17636.431      0.57988585    -12778.365    
      1600   322.4943      -22538.194      17636.431      0.57988585    -12769.35     
      1700   351.52921     -35417.481      17636.431      0.57988585    -12780.339    
      1800   365.10559     -34711.255      17636.431      0.57988585    -12769.334    
      1900   380.46949     -35845.467      17636.431      0.57988585    -12784.654    
      2000   326.48505     -30493.599      17636.431      0.57988585    -12767.625    
      2100   327.2667      -34072.111      17636.431      0.57988585    -12766.415    
      2200   310.6237      -31475.195      17636.431      0.57988585    -12762.71     
      2300   323.90534     -31915.316      17636.431      0.57988585    -12777.829    
      2400   218.01193     -32678.623      17636.431      0.57988585    -12802.822    
      2500   283.32791     -32596.566      17636.431      0.57988585    -12796.599    
      2600   290.23107     -37572.147      17636.431      0.57988585    -12766.401    
      2700   217.0785      -34562.789      17636.431      0.57988585    -12765.55     
      2800   307.10256     -33607.205      17636.431      0.57988585    -12758.686    
      2900   325.65223     -27852.054      17636.431      0.57988585    -12779.106    
      3000   255.06952     -36026.211      17636.431      0.57988585    -12783.72     
      3100   286.03547     -27519.889      17636.431      0.57988585    -12781.688    
      3200   249.3152      -33250.849      17636.431      0.57988585    -12782.257    
      3300   298.10348     -31548.866      17636.431      0.57988585    -12766.102    
      3400   228.61736     -38024.621      17636.431      0.57988585    -12776.664    
      3500   268.22819     -33045.255      17636.431      0.57988585    -12774.557    
      3600   274.34868     -34273.869      17636.431      0.57988585    -12784.251    
      3700   292.16291     -27342.856      17636.431      0.57988585    -12762.182    
      3800   357.24661     -33896.769      17636.431      0.57988585    -12727.1      
      3900   296.14003     -36081.391      17636.431      0.57988585    -12731.996    
      4000   305.60276     -32084.417      17636.431      0.57988585    -12757.308    
      4100   285.13207     -31298.873      17636.431      0.57988585    -12765.421    
      4200   266.44121     -35148.038      17636.431      0.57988585    -12776.657    
      4300   314.49262     -35278.125      17636.431      0.57988585    -12780.243    
      4400   265.00839     -28621.045      17636.431      0.57988585    -12787.452    
      4500   299.4861      -32478.362      17636.431      0.57988585    -12764.908    
      4600   263.60023     -31394.134      17636.431      0.57988585    -12748.302    
      4700   270.80344     -35371.467      17636.431      0.57988585    -12741.608    
      4800   304.95215     -32544.717      17636.431      0.57988585    -12767.227    
      4900   236.24084     -37231.923      17636.431      0.57988585    -12781.899    
      5000   328.68536     -29248.715      17636.431      0.57988585    -12775.562    
      5100   272.48929     -34187.864      17636.431      0.57988585    -12781.881    
      5200   334.10832     -31585.391      17636.431      0.57988585    -12765.856    
      5300   318.57669     -34075.112      17636.431      0.57988585    -12753.698    
      5400   292.32442     -31301.05       17636.431      0.57988585    -12744.504    
      5500   314.87173     -35501.043      17636.431      0.57988585    -12769.136    
      5600   266.88685     -33302.918      17636.431      0.57988585    -12797.694    
      5700   323.94523     -33205.95       17636.431      0.57988585    -12790.478    
      5800   237.61382     -33798.19       17636.431      0.57988585    -12774.329    
      5900   332.54463     -32095.803      17636.431      0.57988585    -12761.904    
      6000   281.28815     -32730.647      17636.431      0.57988585    -12755.646    
      6100   293.70692     -32443.841      17636.431      0.57988585    -12794.791    
      6200   256.1666      -37397.202      17636.431      0.57988585    -12810.738    
      6300   265.37933     -33025.188      17636.431      0.57988585    -12799.324    
      6400   214.60104     -34052.631      17636.431      0.57988585    -12772.706    
      6500   298.02802     -31170.353      17636.431      0.57988585    -12764.77     
      6600   231.58585     -36267.522      17636.431      0.57988585    -12773.825    
      6700   253.48993     -31217.406      17636.431      0.57988585    -12788.31     
      6800   269.8179      -33268.514      17636.431      0.57988585    -12819.231    
      6900   247.47577     -32728.583      17636.431      0.57988585    -12816.453    
      7000   301.42123     -36271.898      17636.431      0.57988585    -12771.54     
      7100   286.51969     -31797.369      17636.431      0.57988585    -12772.745    
      7200   325.68605     -34234.769      17636.431      0.57988585    -12761.944    
      7300   289.75481     -31579.728      17636.431      0.57988585    -12775.933    
      7400   333.21283     -31387.144      17636.431      0.57988585    -12791.817    
      7500   290.84493     -31676.643      17636.431      0.57988585    -12805.174    
      7600   311.61123     -34178.555      17636.431      0.57988585    -12795.916    
      7700   345.15849     -33083.813      17636.431      0.57988585    -12759.225    
      7800   308.70421     -34202.632      17636.431      0.57988585    -12754.992    
      7900   300.443       -32515.415      17636.431      0.57988585    -12771.349    
      8000   288.06005     -29540.264      17636.431      0.57988585    -12793.239    
      8100   257.29593     -32244.292      17636.431      0.57988585    -12804.199    
      8200   261.11901     -30302.229      17636.431      0.57988585    -12762.247    
      8300   319.15831     -35566.253      17636.431      0.57988585    -12739.472    
      8400   266.209       -31748.322      17636.431      0.57988585    -12758.946    
      8500   325.11198     -34102.356      17636.431      0.57988585    -12777.883    
      8600   288.23561     -31735.927      17636.431      0.57988585    -12790.45     
      8700   347.97179     -32997.755      17636.431      0.57988585    -12780        
      8800   344.56461     -27208.14       17636.431      0.57988585    -12758.036    
      8900   300.63989     -32695.532      17636.431      0.57988585    -12735.488    
      9000   355.69934     -30869.155      17636.431      0.57988585    -12751.16     
      9100   261.38108     -35319.901      17636.431      0.57988585    -12784.849    
      9200   291.93206     -33252.701      17636.431      0.57988585    -12786.072    
      9300   300.47813     -34530.667      17636.431      0.57988585    -12783.064    
      9400   298.40506     -30948.28       17636.431      0.57988585    -12764.678    
      9500   318.90473     -33394.735      17636.431      0.57988585    -12740.765    
      9600   277.98143     -30349.893      17636.431      0.57988585    -12734.144    
      9700   291.53667     -32042.773      17636.431      0.57988585    -12772.109    
      9800   247.75586     -31428.873      17636.431      0.57988585    -12795.129    
      9900   266.28646     -36110.545      17636.431      0.57988585    -12788.713    
     10000   257.51625     -34632.253      17636.431      0.57988585    -12766.387    
Loop time of 2.24406 on 20 procs for 10000 steps with 424 atoms

Performance: 385.016 ns/day, 0.062 hours/ns, 4456.208 timesteps/s, 1.889 Matom-step/s
99.9% CPU use with 20 MPI tasks x no OpenMP threads

MPI task timing breakdown:
Section |  min time  |  avg time  |  max time  |%varavg| %total
---------------------------------------------------------------
Pair    | 0.019047   | 0.21057    | 0.46485    |  35.1 |  9.38
Bond    | 0.0056765  | 0.038877   | 0.082398   |  13.0 |  1.73
Kspace  | 1.117      | 1.3735     | 1.5798     |  14.2 | 61.21
Neigh   | 0.020407   | 0.021327   | 0.022228   |   0.3 |  0.95
Comm    | 0.47919    | 0.508      | 0.552      |   2.8 | 22.64
Output  | 0.0051324  | 0.0079127  | 0.010749   |   1.9 |  0.35
Modify  | 0.019564   | 0.037804   | 0.056428   |   5.1 |  1.68
Other   |            | 0.04605    |            |       |  2.05

Nlocal:           21.2 ave          38 max           2 min
Histogram: 4 3 1 0 0 3 1 0 1 7
Nghost:        1620.65 ave        1749 max        1445 min
Histogram: 8 0 0 0 0 0 0 0 4 8
Neighs:        2667.55 ave        4830 max         261 min
Histogram: 4 3 1 0 2 1 1 0 2 6

Total # of neighbors = 53351
Ave neighs/atom = 125.82783
Ave special neighs/atom = 12.943396
Neighbor list builds = 59
Dangerous builds = 0
unfix           mynpt


# Fix GCMC
# N: выполнять GCMC каждые N шагов
# Nexchange: количество попыток обмена (вставка/удаление)
# Ntranslate_rotate_mol: количество попыток трансляции/вращения молекулы
# Nrigidbody_... : 0, так как CO2 у нас гибкий
# mol co2mol: используемый шаблон молекулы
# full_energy: пересчитывать полную энергию системы (рекомендуется)
# pressure ${P}: давление (LAMMPS вычислит химический потенциал)
# displace: максимальное смещение для трансляции молекулы (в Ангстремах)
#fix             gcmc_run all gcmc 100 100 100 0 ${seed} ${T} ${P} ${fug_coeff} mol co2mol full_energy displace 0.5
fix             GCMC co2_atoms gcmc 100 1000 0 0 12345 298.0 -5.0 0.5 mol co2mol pressure ${press} full_energy group co2_atoms
fix             GCMC co2_atoms gcmc 100 1000 0 0 12345 298.0 -5.0 0.5 mol co2mol pressure 10 full_energy group co2_atoms

# --- Настройки вывода ---
#thermo_style    custom step temp press pe etotal natoms ncmc_insert ncmc_delete ncmc_trans ncmc_rotate ncmc_attempt ncmc_accept atoms_in_gcmc_mol


thermo          1000
thermo_style    custom step temp press v_N_co2 v_ads_density pe ke etotal
dump            gcmc_dump all atom 500 dumps_T298K/dump.gcmc_mof5_co2_${press}.lammpstrj
dump            gcmc_dump all atom 500 dumps_T298K/dump.gcmc_mof5_co2_10.lammpstrj

# --- Запуск симуляции ---
# Для GCMC обычно не нужен MD integrator для всей системы, если только не изучается динамика каркаса.
# Если каркас должен быть подвижен, добавьте fix nvt для атомов MOF-5.
# Например, если атомы MOF-5 должны оставаться фиксированными:
# group mof_atoms type <= 5
# fix freeze_mof mof_atoms setforce 0.0 0.0 0.0
# Однако, для GCMC лучше, чтобы каркас был термостатирован, если он не абсолютно жесткий.
# Если вы хотите просто провести GCMC без MD шагов для каркаса:
# run 0 post no # Это позволит fix gcmc работать без MD шагов
# Но обычно GCMC совмещают с MD:
timestep        1.0 # фемтосекунды (если есть MD)
run             100000 # Количество шагов GCMC/MD
WARNING: No fixes with time integration, atoms won't move (../verlet.cpp:60)
PPPM initialization ...
  using 12-bit tables for long-range coulomb (../kspace.cpp:342)
  G vector (1/distance) = 0.2438405
  grid = 16 16 16
  stencil order = 5
  estimated absolute RMS force accuracy = 0.002249822
  estimated relative force accuracy = 6.7752721e-06
  using double precision KISS FFT
  3d grid and FFT values/proc = 2250 256
Generated 21 of 21 mixed pair_coeff terms from arithmetic mixing rule
0 atoms in group FixGCMC:gcmc_exclusion_group:GCMC
0 atoms in group FixGCMC:rotation_gas_atoms:GCMC
WARNING: Neighbor exclusions used with KSpace solver may give inconsistent Coulombic energies (../neighbor.cpp:666)
WARNING: Inconsistent image flags (../domain.cpp:1051)
Per MPI rank memory allocation (min/avg/max) = 14.24 | 14.46 | 14.93 Mbytes
   Step          Temp          Press         v_N_co2     v_ads_density      PotEng         KinEng         TotEng    
     10000   257.51625     -34632.253      0              0             -13091.084      324.69777     -12766.387    
     11000   328.35095     -34413.474      100            0.0056700814  -13619.12       414.01202     -13205.107    
     12000   350.36409     -34138.853      121            0.0068607985  -13776.893      441.76801     -13335.125    
     13000   348.31696     -34046.725      124            0.0070309009  -13812.281      439.18681     -13373.095    
     14000   347.92313     -33893.58       128            0.0072577042  -13839.504      438.69023     -13400.814    
     15000   369.32638     -33525.576      146            0.0082783188  -13944.12       465.67723     -13478.443    
     16000   370.87015     -33253.932      148            0.0083917205  -13959.441      467.62374     -13491.817    
     17000   370.81129     -33024.127      154            0.0087319253  -14001.698      467.54952     -13534.148    
     18000   380.91321     -32773.996      157            0.0089020278  -14037.397      480.28685     -13557.111    
     19000   382.31074     -32801.643      162            0.0091855319  -14071.61       482.04898     -13589.561    
     20000   380.91976     -32405.568      160            0.0090721302  -14063.619      480.29512     -13583.324    
     21000   382.13644     -32744.118      160            0.0090721302  -14079.138      481.8292      -13597.309    
     22000   383.28555     -32872.463      157            0.0089020278  -14074.887      483.2781      -13591.609    
     23000   383.3038      -32811.342      157            0.0089020278  -14079.134      483.30111     -13595.833    
     24000   381.01736     -32829.683      160            0.0090721302  -14099.477      480.41818     -13619.059    
     25000   376.84314     -32907.806      156            0.008845327   -14083.659      475.15498     -13608.504    
     26000   379.68428     -32715.976      159            0.0090154294  -14102.848      478.73733     -13624.111    
     27000   380.7432      -32599.857      161            0.009128831   -14116.468      480.0725      -13636.396    
     28000   384.08007     -32470.215      164            0.0092989335  -14131.499      484.27989     -13647.219    
     29000   377.37608     -32662.168      161            0.009128831   -14117.914      475.82696     -13642.088    
     30000   377.78804     -32794.292      162            0.0091855319  -14116.813      476.34639     -13640.467    
     31000   374.07713     -32784.151      160            0.0090721302  -14114.631      471.66736     -13642.963    
     32000   376.96044     -32603.388      164            0.0092989335  -14134.663      475.30287     -13659.36     
     33000   380.62509     -32768.591      161            0.009128831   -14124.278      479.92358     -13644.354    
     34000   380.59812     -32733.043      163            0.0092422327  -14127.091      479.88956     -13647.202    
     35000   378.40396     -32568.18       162            0.0091855319  -14121.657      477.12299     -13644.534    
     36000   376.67457     -32660.01       164            0.0092989335  -14134.236      474.94243     -13659.294    
     37000   376.20184     -32548.142      163            0.0092422327  -14128.218      474.34638     -13653.872    
     38000   373.29121     -32621.721      157            0.0089020278  -14101.917      470.67641     -13631.24     
     39000   372.43788     -32704.892      159            0.0090154294  -14118.309      469.60046     -13648.708    
     40000   375.80737     -32640.594      162            0.0091855319  -14133.012      473.849       -13659.163    
     41000   384.77285     -32616.773      163            0.0092422327  -14148.208      485.15341     -13663.054    
     42000   377.89123     -32668.634      159            0.0090154294  -14141.318      476.47649     -13664.841    
     43000   383.69919     -32342.794      167            0.0094690359  -14181.856      483.79965     -13698.057    
     44000   380.13325     -32502.788      163            0.0092422327  -14167.27       479.30341     -13687.967    
     45000   376.96415     -32496.56       166            0.0094123351  -14176.61       475.30756     -13701.302    
     46000   373.95027     -32734.576      158            0.0089587286  -14145.529      471.50741     -13674.022    
     47000   375.69487     -32678.561      159            0.0090154294  -14145.81       473.70714     -13672.103    
     48000   375.64431     -32556.441      160            0.0090721302  -14147.211      473.6434      -13673.567    
     49000   376.06503     -32514.343      162            0.0091855319  -14170.694      474.17387     -13696.52     
     50000   379.34404     -32588.74       166            0.0094123351  -14196.916      478.30832     -13718.608    
     51000   381.50958     -32588.982      169            0.0095824376  -14214.608      481.03881     -13733.57     
     52000   381.58729     -32770.641      171            0.0096958392  -14219.657      481.1368      -13738.521    
     53000   384.96048     -32761.84       172            0.00975254    -14224.787      485.38999     -13739.397    
     54000   381.53273     -32713.374      168            0.0095257367  -14206.416      481.068       -13725.348    
     55000   382.10698     -32849.499      167            0.0094690359  -14206.714      481.79206     -13724.922    
     56000   382.17147     -32687.896      169            0.0095824376  -14208.119      481.87337     -13726.246    
     57000   380.65964     -32586.209      166            0.0094123351  -14195.942      479.96714     -13715.975    
     58000   376.42262     -32754.243      161            0.009128831   -14178.311      474.62476     -13703.686    
     59000   379.69119     -32724.366      162            0.0091855319  -14186.612      478.74603     -13707.866    
     60000   382.47402     -32848.098      165            0.0093556343  -14199.289      482.25486     -13717.034    
     61000   386.9066      -32635.573      173            0.0098092408  -14249.389      487.84381     -13761.545    
     62000   381.35437     -32660.655      167            0.0094690359  -14224.831      480.84311     -13743.988    
     63000   386.61929     -32779.426      172            0.00975254    -14251.323      487.48156     -13763.841    
     64000   384.29278     -32909.386      169            0.0095824376  -14231.014      484.5481      -13746.465    
     65000   384.9214      -32788.034      167            0.0094690359  -14226.878      485.34072     -13741.537    
     66000   386.24565     -32696.096      171            0.0096958392  -14247.397      487.01044     -13760.386    
     67000   386.48551     -32652.191      172            0.00975254    -14256.43       487.31287     -13769.118    
     68000   386.473       -32569.047      173            0.0098092408  -14253.507      487.2971      -13766.21     
     69000   386.17651     -32486.811      175            0.0099226424  -14272.446      486.92326     -13785.523    
     70000   387.34164     -32546.539      178            0.010092745   -14285.144      488.39236     -13796.752    
     71000   383.69347     -32569.569      171            0.0096958392  -14247.682      483.79244     -13763.89     
     72000   389.93574     -32367.865      180            0.010206147   -14296.583      491.66321     -13804.92     
     73000   389.33687     -32423.915      178            0.010092745   -14292.619      490.9081      -13801.711    
     74000   392.58215     -32320.314      180            0.010206147   -14301.39       495.00002     -13806.39     
     75000   390.43571     -32336.441      178            0.010092745   -14291.358      492.29362     -13799.065    
     76000   390.40044     -32507.207      179            0.010149446   -14294.11       492.24914     -13801.861    
     77000   385.66417     -32548.824      175            0.0099226424  -14278.857      486.27726     -13792.58     
     78000   390.48893     -32541.301      176            0.0099793433  -14287.114      492.36072     -13794.753    
     79000   390.74699     -32529.713      178            0.010092745   -14295.53       492.6861      -13802.844    
     80000   387.70012     -32541.005      175            0.0099226424  -14281.127      488.84436     -13792.282    
     81000   389.97357     -32544.868      177            0.010036044   -14294.255      491.7109      -13802.544    
     82000   388.18425     -32547.037      177            0.010036044   -14292.717      489.45479     -13803.263    
     83000   388.41483     -32693.007      175            0.0099226424  -14291.304      489.74552     -13801.559    
     84000   389.94543     -32626.301      179            0.010149446   -14311.373      491.67543     -13819.698    
     85000   388.04829     -32513.306      177            0.010036044   -14303.71       489.28336     -13814.427    
     86000   392.80862     -32335.609      182            0.010319548   -14325.062      495.28557     -13829.777    
     87000   393.63796     -32153.417      184            0.01043295    -14336.163      496.33127     -13839.832    
     88000   391.60943     -32340.558      182            0.010319548   -14325.353      493.77354     -13831.579    
     89000   390.13367     -32170.463      180            0.010206147   -14313.948      491.91278     -13822.035    
     90000   386.26251     -32269.701      178            0.010092745   -14309.83       487.03169     -13822.798    
     91000   386.81575     -32302.585      179            0.010149446   -14314.751      487.72927     -13827.021    
     92000   388.80563     -32059.063      184            0.01043295    -14336.632      490.23827     -13846.393    
     93000   385.34319     -32380.083      180            0.010206147   -14319.263      485.87254     -13833.39     
     94000   380.35884     -32567.436      175            0.0099226424  -14297.73       479.58787     -13818.143    
     95000   379.05454     -32616.515      176            0.0099793433  -14295.875      477.94329     -13817.932    
     96000   382.084       -32491.712      178            0.010092745   -14322.65       481.76309     -13840.887    
     97000   381.46655     -32370.606      177            0.010036044   -14312.363      480.98456     -13831.379    
     98000   377.55522     -32553.387      173            0.0098092408  -14298.113      476.05283     -13822.061    
     99000   378.95998     -32504.017      173            0.0098092408  -14289.053      477.82407     -13811.229    
    100000   379.71502     -32460.068      175            0.0099226424  -14304.358      478.77608     -13825.582    
    101000   382.0195      -32307.341      175            0.0099226424  -14307.512      481.68176     -13825.83     
    102000   383.79886     -32228.4        181            0.010262847   -14325.879      483.92532     -13841.954    
    103000   383.37398     -32313.063      181            0.010262847   -14338.484      483.3896      -13855.094    
    104000   381.29477     -32256.491      176            0.0099793433  -14319.797      480.76796     -13839.029    
    105000   386.57513     -32412.907      178            0.010092745   -14321.39       487.42588     -13833.964    
    106000   387.477       -32451.861      179            0.010149446   -14333.2        488.56302     -13844.637    
    107000   383.55285     -32632.674      177            0.010036044   -14323.78       483.61514     -13840.164    
    108000   383.39556     -32490.814      175            0.0099226424  -14308.662      483.41682     -13825.245    
    109000   384.04415     -32330.944      180            0.010206147   -14329.189      484.23461     -13844.954    
    110000   377.58365     -32480.663      173            0.0098092408  -14302.256      476.08868     -13826.168    
Loop time of 2249.63 on 20 procs for 100000 steps with 943 atoms

Performance: 3.841 ns/day, 6.249 hours/ns, 44.452 timesteps/s, 41.918 katom-step/s
100.0% CPU use with 20 MPI tasks x no OpenMP threads

MPI task timing breakdown:
Section |  min time  |  avg time  |  max time  |%varavg| %total
---------------------------------------------------------------
Pair    | 6.4894     | 11.697     | 20.201     | 120.3 |  0.52
Bond    | 0.055204   | 0.44097    | 0.9686     |  36.0 |  0.02
Kspace  | 11.71      | 20.269     | 25.694     |  93.4 |  0.90
Neigh   | 1.4662     | 1.4946     | 1.5195     |   1.2 |  0.07
Comm    | 6.9315     | 7.2934     | 8.1167     |  10.7 |  0.32
Output  | 0.096432   | 0.15932    | 0.2009     |   7.0 |  0.01
Modify  | 2207.4     | 2207.5     | 2207.6     |   0.1 | 98.13
Other   |            | 0.7713     |            |       |  0.03

Nlocal:          47.15 ave          64 max          33 min
Histogram: 4 4 0 2 1 0 3 2 3 1
Nghost:         3164.1 ave        3307 max        3014 min
Histogram: 3 4 1 0 0 0 4 3 4 1
Neighs:        14365.4 ave       19187 max       10017 min
Histogram: 2 5 1 1 2 0 2 2 4 1

Total # of neighbors = 287307
Ave neighs/atom = 304.67338
Ave special neighs/atom = 6.9204666
Neighbor list builds = 1001992
Dangerous builds = 0

# --- Завершение ---
print "GCMC simulation finished." 
GCMC simulation finished.
Total wall time: 0:37:31
