LAMMPS (29 Aug 2024 - Update 2)
# LAMMPS input script for GCMC simulation of CO2 in MOF-5

variable press equal ${p}
variable press equal 2.0

# --- Инициализация ---
units           real
atom_style      full
boundary        p p p

# --- Определение стилей потенциалов ---
# Важно: эти стили должны соответствовать формату коэффициентов в data.MOF5_charged_simple
# и добавленным коэффициентам для CO2.
pair_style      lj/cut/coul/long 12.0 # Катофф 12 Ангстрем для LJ и кулона
bond_style      harmonic
angle_style     hybrid fourier cosine/periodic harmonic # MOF-5 использует fourier и cosine/periodic, CO2 - harmonic
dihedral_style  harmonic # Предполагаем, что диэдрали в MOF-5 совместимы с harmonic (K d n)
improper_style  fourier # Предполагаем, что несобственные углы в MOF-5 совместимы с umbrella (K chi0)

# --- Чтение данных MOF-5 ---
# Добавляем 2 новых типа атомов (для C и O в CO2), 1 новый тип связи (C=O), 1 новый тип угла (O=C=O)
read_data       data.MOF5_charged_simple extra/atom/types 2 extra/bond/types 1 extra/angle/types 1
Reading data file ...
  triclinic box = (0 0 0) to (26.029363 26.031584 26.028346) with tilt (0.003152 -0.002169 0.002663)
  2 by 5 by 2 MPI processor grid
  reading atoms ...
  424 atoms
  scanning bonds ...
  4 = max bonds/atom
  scanning angles ...
  6 = max angles/atom
  scanning dihedrals ...
  8 = max dihedrals/atom
  scanning impropers ...
  3 = max impropers/atom
  triclinic box = (0 0 0) to (26.029363 26.031584 26.028346) with tilt (0.003152 -0.002169 0.002663)
  2 by 5 by 2 MPI processor grid
  reading bonds ...
  512 bonds
  reading angles ...
  912 angles
  reading dihedrals ...
  960 dihedrals
  reading impropers ...
  576 impropers
Finding 1-2 1-3 1-4 neighbors ...
  special bond factors lj:    0        0        0       
  special bond factors coul:  0        0        0       
     4 = max # of 1-2 neighbors
    12 = max # of 1-3 neighbors
    24 = max # of 1-4 neighbors
    22 = max # of special neighbors
  special bonds CPU = 0.001 seconds
  read_data CPU = 0.018 seconds

# --- Определение параметров для CO2 ---
# Массы для новых типов атомов (6: C_CO2, 7: O_CO2)
mass            6 12.011   # C in CO2
mass            7 15.9994  # O in CO2

# Pair Coeffs для CO2 (MOF-5 pair_coeffs читаются из data-файла)
# pair_coeff I J epsilon sigma
pair_coeff      6 6 0.0514 2.85    # C_CO2 - C_CO2
pair_coeff      7 7 0.1600 3.02    # O_CO2 - O_CO2

# Правила смешивания для межмолекулярных взаимодействий (например, MOF-CO2)
# Lorentz-Berthelot по умолчанию для lj/cut/coul/long
pair_modify     mix arithmetic

# Bond Coeffs для CO2 (тип связи 7)
# bond_coeff Type K r0
bond_coeff      7 1000.0 1.16   # C=O

# Angle Coeffs для CO2 (тип угла 10)
# angle_coeff Type K theta0 (для стиля harmonic)
angle_coeff     10 harmonic 100.0 180.0 # O=C=O

# --- Настройки дальнодействующих взаимодействий ---
kspace_style    pppm 1.0e-5

# --- Определение молекулы CO2 ---
molecule        co2mol CO2.txt
Read molecule template co2mol:
# CO2 molecule template for LAMMPS
  1 molecules
  0 fragments
  3 atoms with max type 7
  2 bonds with max type 7
  1 angles with max type 10
  0 dihedrals with max type 0
  0 impropers with max type 0

# --- Настройки GCMC ---
variable        T equal 298.0       # Температура в Кельвинах
variable        P equal 0.1         # Давление в атмосферах
variable        fug_coeff equal 1.0 # Коэффициент фугитивности (для идеального газа = 1.0)
variable        seed equal 12345    # Начальное число для генератора случайных чисел

# Группа для атомов CO2 (типы 6 и 7)
group           co2_atoms type 6 7
0 atoms in group co2_atoms


# Variables for analysis
variable N_co2  equal count(co2_atoms)/3
variable ads_density equal v_N_co2/vol

dump            dall all atom 100 dumps_T298K/dump_npt_${press}.lammpstrj
dump            dall all atom 100 dumps_T298K/dump_npt_2.lammpstrj

fix             mynpt all nvt temp 298.0 298.0 100.0

# Thermo output
thermo          100
thermo_style    custom step temp press vol density etotal
run             10000
PPPM initialization ...
WARNING: System is not charge neutral, net charge = 0.0008 (../kspace.cpp:327)
  using 12-bit tables for long-range coulomb (../kspace.cpp:342)
  G vector (1/distance) = 0.2438405
  grid = 16 16 16
  stencil order = 5
  estimated absolute RMS force accuracy = 0.002249822
  estimated relative force accuracy = 6.7752721e-06
  using double precision KISS FFT
  3d grid and FFT values/proc = 2250 256
Generated 21 of 21 mixed pair_coeff terms from arithmetic mixing rule
Neighbor list info ...
  update: every = 1 steps, delay = 0 steps, check = yes
  max neighbors/atom: 2000, page size: 100000
  master list distance cutoff = 14
  ghost atom cutoff = 14
  binsize = 7, bins = 4 4 4
  1 neighbor lists, perpetual/occasional/extra = 1 0 0
  (1) pair lj/cut/coul/long, perpetual
      attributes: half, newton on
      pair build: half/bin/newton/tri
      stencil: half/bin/3d/tri
      bin: standard
WARNING: Inconsistent image flags (../domain.cpp:1051)
Per MPI rank memory allocation (min/avg/max) = 13.24 | 13.45 | 13.94 Mbytes
   Step          Temp          Press          Volume        Density         TotEng    
         0   0             -31876.762      17636.431      0.57988585    -12893.244    
       100   213.49407     -30002.093      17636.431      0.57988585    -12860.54     
       200   272.54824     -36267.945      17636.431      0.57988585    -12824.296    
       300   247.31771     -30813.89       17636.431      0.57988585    -12791.181    
       400   365.44045     -40200.501      17636.431      0.57988585    -12758.574    
       500   390.04847     -35283.076      17636.431      0.57988585    -12765.465    
       600   405.37642     -31390.924      17636.431      0.57988585    -12761.03     
       700   316.23977     -25622.144      17636.431      0.57988585    -12783.716    
       800   416.25121     -28441.627      17636.431      0.57988585    -12783.932    
       900   355.94793     -31932.299      17636.431      0.57988585    -12779.66     
      1000   253.89126     -30645.299      17636.431      0.57988585    -12780.656    
      1100   311.85955     -33842.993      17636.431      0.57988585    -12769.096    
      1200   172.21309     -29210.083      17636.431      0.57988585    -12774.23     
      1300   261.17774     -32908.143      17636.431      0.57988585    -12765.851    
      1400   193.05251     -27679.149      17636.431      0.57988585    -12769.79     
      1500   261.28539     -30414.605      17636.431      0.57988585    -12778.365    
      1600   322.4943      -22538.194      17636.431      0.57988585    -12769.35     
      1700   351.52921     -35417.481      17636.431      0.57988585    -12780.339    
      1800   365.10559     -34711.255      17636.431      0.57988585    -12769.334    
      1900   380.46949     -35845.467      17636.431      0.57988585    -12784.654    
      2000   326.48505     -30493.599      17636.431      0.57988585    -12767.625    
      2100   327.2667      -34072.111      17636.431      0.57988585    -12766.415    
      2200   310.6237      -31475.195      17636.431      0.57988585    -12762.71     
      2300   323.90534     -31915.316      17636.431      0.57988585    -12777.829    
      2400   218.01193     -32678.623      17636.431      0.57988585    -12802.822    
      2500   283.32791     -32596.566      17636.431      0.57988585    -12796.599    
      2600   290.23107     -37572.147      17636.431      0.57988585    -12766.401    
      2700   217.0785      -34562.789      17636.431      0.57988585    -12765.55     
      2800   307.10256     -33607.205      17636.431      0.57988585    -12758.686    
      2900   325.65223     -27852.054      17636.431      0.57988585    -12779.106    
      3000   255.06952     -36026.211      17636.431      0.57988585    -12783.72     
      3100   286.03547     -27519.889      17636.431      0.57988585    -12781.688    
      3200   249.3152      -33250.849      17636.431      0.57988585    -12782.257    
      3300   298.10348     -31548.866      17636.431      0.57988585    -12766.102    
      3400   228.61736     -38024.621      17636.431      0.57988585    -12776.664    
      3500   268.22819     -33045.255      17636.431      0.57988585    -12774.557    
      3600   274.34868     -34273.869      17636.431      0.57988585    -12784.251    
      3700   292.16291     -27342.856      17636.431      0.57988585    -12762.182    
      3800   357.24661     -33896.769      17636.431      0.57988585    -12727.1      
      3900   296.14003     -36081.391      17636.431      0.57988585    -12731.996    
      4000   305.60276     -32084.417      17636.431      0.57988585    -12757.308    
      4100   285.13207     -31298.873      17636.431      0.57988585    -12765.421    
      4200   266.44121     -35148.038      17636.431      0.57988585    -12776.657    
      4300   314.49262     -35278.125      17636.431      0.57988585    -12780.243    
      4400   265.00839     -28621.045      17636.431      0.57988585    -12787.452    
      4500   299.4861      -32478.362      17636.431      0.57988585    -12764.908    
      4600   263.60023     -31394.134      17636.431      0.57988585    -12748.302    
      4700   270.80344     -35371.467      17636.431      0.57988585    -12741.608    
      4800   304.95215     -32544.717      17636.431      0.57988585    -12767.227    
      4900   236.24084     -37231.923      17636.431      0.57988585    -12781.899    
      5000   328.68536     -29248.715      17636.431      0.57988585    -12775.562    
      5100   272.48929     -34187.864      17636.431      0.57988585    -12781.881    
      5200   334.10832     -31585.391      17636.431      0.57988585    -12765.856    
      5300   318.57669     -34075.112      17636.431      0.57988585    -12753.698    
      5400   292.32442     -31301.05       17636.431      0.57988585    -12744.504    
      5500   314.87173     -35501.043      17636.431      0.57988585    -12769.136    
      5600   266.88685     -33302.918      17636.431      0.57988585    -12797.694    
      5700   323.94523     -33205.95       17636.431      0.57988585    -12790.478    
      5800   237.61382     -33798.19       17636.431      0.57988585    -12774.329    
      5900   332.54463     -32095.803      17636.431      0.57988585    -12761.904    
      6000   281.28815     -32730.647      17636.431      0.57988585    -12755.646    
      6100   293.70692     -32443.841      17636.431      0.57988585    -12794.791    
      6200   256.1666      -37397.202      17636.431      0.57988585    -12810.738    
      6300   265.37933     -33025.188      17636.431      0.57988585    -12799.324    
      6400   214.60104     -34052.631      17636.431      0.57988585    -12772.706    
      6500   298.02802     -31170.353      17636.431      0.57988585    -12764.77     
      6600   231.58585     -36267.522      17636.431      0.57988585    -12773.825    
      6700   253.48993     -31217.406      17636.431      0.57988585    -12788.31     
      6800   269.8179      -33268.514      17636.431      0.57988585    -12819.231    
      6900   247.47577     -32728.583      17636.431      0.57988585    -12816.453    
      7000   301.42123     -36271.898      17636.431      0.57988585    -12771.54     
      7100   286.51969     -31797.369      17636.431      0.57988585    -12772.745    
      7200   325.68605     -34234.769      17636.431      0.57988585    -12761.944    
      7300   289.75481     -31579.728      17636.431      0.57988585    -12775.933    
      7400   333.21283     -31387.144      17636.431      0.57988585    -12791.817    
      7500   290.84493     -31676.643      17636.431      0.57988585    -12805.174    
      7600   311.61123     -34178.555      17636.431      0.57988585    -12795.916    
      7700   345.15849     -33083.813      17636.431      0.57988585    -12759.225    
      7800   308.70421     -34202.632      17636.431      0.57988585    -12754.992    
      7900   300.443       -32515.415      17636.431      0.57988585    -12771.349    
      8000   288.06005     -29540.264      17636.431      0.57988585    -12793.239    
      8100   257.29593     -32244.292      17636.431      0.57988585    -12804.199    
      8200   261.11901     -30302.229      17636.431      0.57988585    -12762.247    
      8300   319.15831     -35566.253      17636.431      0.57988585    -12739.472    
      8400   266.209       -31748.322      17636.431      0.57988585    -12758.946    
      8500   325.11198     -34102.356      17636.431      0.57988585    -12777.883    
      8600   288.23561     -31735.927      17636.431      0.57988585    -12790.45     
      8700   347.97179     -32997.755      17636.431      0.57988585    -12780        
      8800   344.56461     -27208.14       17636.431      0.57988585    -12758.036    
      8900   300.63989     -32695.532      17636.431      0.57988585    -12735.488    
      9000   355.69934     -30869.155      17636.431      0.57988585    -12751.16     
      9100   261.38108     -35319.901      17636.431      0.57988585    -12784.849    
      9200   291.93206     -33252.701      17636.431      0.57988585    -12786.072    
      9300   300.47813     -34530.667      17636.431      0.57988585    -12783.064    
      9400   298.40506     -30948.28       17636.431      0.57988585    -12764.678    
      9500   318.90473     -33394.735      17636.431      0.57988585    -12740.765    
      9600   277.98143     -30349.893      17636.431      0.57988585    -12734.144    
      9700   291.53667     -32042.773      17636.431      0.57988585    -12772.109    
      9800   247.75586     -31428.873      17636.431      0.57988585    -12795.129    
      9900   266.28646     -36110.545      17636.431      0.57988585    -12788.713    
     10000   257.51625     -34632.253      17636.431      0.57988585    -12766.387    
Loop time of 2.27713 on 20 procs for 10000 steps with 424 atoms

Performance: 379.425 ns/day, 0.063 hours/ns, 4391.498 timesteps/s, 1.862 Matom-step/s
99.9% CPU use with 20 MPI tasks x no OpenMP threads

MPI task timing breakdown:
Section |  min time  |  avg time  |  max time  |%varavg| %total
---------------------------------------------------------------
Pair    | 0.021358   | 0.19658    | 0.43379    |  29.5 |  8.63
Bond    | 0.0069555  | 0.036233   | 0.067112   |  10.5 |  1.59
Kspace  | 1.1793     | 1.3997     | 1.5962     |  11.4 | 61.47
Neigh   | 0.019899   | 0.020669   | 0.021518   |   0.3 |  0.91
Comm    | 0.4799     | 0.52506    | 0.5677     |   3.4 | 23.06
Output  | 0.0062988  | 0.0091497  | 0.011954   |   1.8 |  0.40
Modify  | 0.016154   | 0.041041   | 0.06522    |   7.2 |  1.80
Other   |            | 0.04865    |            |       |  2.14

Nlocal:           21.2 ave          38 max           2 min
Histogram: 4 3 1 0 0 3 1 0 1 7
Nghost:        1620.65 ave        1749 max        1445 min
Histogram: 8 0 0 0 0 0 0 0 4 8
Neighs:        2667.55 ave        4830 max         261 min
Histogram: 4 3 1 0 2 1 1 0 2 6

Total # of neighbors = 53351
Ave neighs/atom = 125.82783
Ave special neighs/atom = 12.943396
Neighbor list builds = 59
Dangerous builds = 0
unfix           mynpt


# Fix GCMC
# N: выполнять GCMC каждые N шагов
# Nexchange: количество попыток обмена (вставка/удаление)
# Ntranslate_rotate_mol: количество попыток трансляции/вращения молекулы
# Nrigidbody_... : 0, так как CO2 у нас гибкий
# mol co2mol: используемый шаблон молекулы
# full_energy: пересчитывать полную энергию системы (рекомендуется)
# pressure ${P}: давление (LAMMPS вычислит химический потенциал)
# displace: максимальное смещение для трансляции молекулы (в Ангстремах)
#fix             gcmc_run all gcmc 100 100 100 0 ${seed} ${T} ${P} ${fug_coeff} mol co2mol full_energy displace 0.5
fix             GCMC co2_atoms gcmc 100 1000 0 0 12345 298.0 -5.0 0.5 mol co2mol pressure ${press} full_energy group co2_atoms
fix             GCMC co2_atoms gcmc 100 1000 0 0 12345 298.0 -5.0 0.5 mol co2mol pressure 2 full_energy group co2_atoms

# --- Настройки вывода ---
#thermo_style    custom step temp press pe etotal natoms ncmc_insert ncmc_delete ncmc_trans ncmc_rotate ncmc_attempt ncmc_accept atoms_in_gcmc_mol


thermo          1000
thermo_style    custom step temp press v_N_co2 v_ads_density pe ke etotal
dump            gcmc_dump all atom 500 dumps_T298K/dump.gcmc_mof5_co2_${press}.lammpstrj
dump            gcmc_dump all atom 500 dumps_T298K/dump.gcmc_mof5_co2_2.lammpstrj

# --- Запуск симуляции ---
# Для GCMC обычно не нужен MD integrator для всей системы, если только не изучается динамика каркаса.
# Если каркас должен быть подвижен, добавьте fix nvt для атомов MOF-5.
# Например, если атомы MOF-5 должны оставаться фиксированными:
# group mof_atoms type <= 5
# fix freeze_mof mof_atoms setforce 0.0 0.0 0.0
# Однако, для GCMC лучше, чтобы каркас был термостатирован, если он не абсолютно жесткий.
# Если вы хотите просто провести GCMC без MD шагов для каркаса:
# run 0 post no # Это позволит fix gcmc работать без MD шагов
# Но обычно GCMC совмещают с MD:
timestep        1.0 # фемтосекунды (если есть MD)
run             100000 # Количество шагов GCMC/MD
WARNING: No fixes with time integration, atoms won't move (../verlet.cpp:60)
PPPM initialization ...
  using 12-bit tables for long-range coulomb (../kspace.cpp:342)
  G vector (1/distance) = 0.2438405
  grid = 16 16 16
  stencil order = 5
  estimated absolute RMS force accuracy = 0.002249822
  estimated relative force accuracy = 6.7752721e-06
  using double precision KISS FFT
  3d grid and FFT values/proc = 2250 256
Generated 21 of 21 mixed pair_coeff terms from arithmetic mixing rule
0 atoms in group FixGCMC:gcmc_exclusion_group:GCMC
0 atoms in group FixGCMC:rotation_gas_atoms:GCMC
WARNING: Neighbor exclusions used with KSpace solver may give inconsistent Coulombic energies (../neighbor.cpp:666)
WARNING: Inconsistent image flags (../domain.cpp:1051)
Per MPI rank memory allocation (min/avg/max) = 14.24 | 14.46 | 14.93 Mbytes
   Step          Temp          Press         v_N_co2     v_ads_density      PotEng         KinEng         TotEng    
     10000   257.51625     -34632.253      0              0             -13091.084      324.69777     -12766.387    
     11000   310.70383     -34405.636      89             0.0050463724  -13648.964      391.76107     -13257.203    
     12000   324.95195     -34288.238      110            0.0062370895  -13788          409.72628     -13378.274    
     13000   330.938       -34147.777      116            0.0065772944  -13837.764      417.27399     -13420.49     
     14000   329.19002     -33725.403      114            0.0064638928  -13847.023      415.06998     -13431.953    
     15000   335.75777     -33673.361      119            0.0067473969  -13903.942      423.35115     -13480.591    
     16000   345.47166     -33830.887      126            0.0071443026  -13943.241      435.59922     -13507.642    
     17000   345.54214     -33732.758      130            0.0073711058  -13978.303      435.68809     -13542.615    
     18000   351.05658     -33690.255      131            0.0074278066  -13989.991      442.64115     -13547.35     
     19000   352.40224     -33608.083      134            0.0075979091  -13994.56       444.33787     -13550.222    
     20000   351.94223     -33637.416      133            0.0075412083  -13990.418      443.75785     -13546.66     
     21000   349.43234     -33492.707      135            0.0076546099  -14016.168      440.59317     -13575.574    
     22000   352.27362     -33284.566      139            0.0078814131  -14051.447      444.1757      -13607.271    
     23000   360.79992     -33491.155      141            0.0079948148  -14070.213      454.92635     -13615.286    
     24000   352.58261     -33512.281      136            0.0077113107  -14055.244      444.56529     -13610.678    
     25000   353.05        -33465.788      142            0.0080515156  -14079.961      445.15463     -13634.806    
     26000   349.69395     -33324.762      137            0.0077680115  -14064.286      440.92303     -13623.363    
     27000   354.55023     -33520.576      140            0.007938114   -14078.302      447.04623     -13631.256    
     28000   348.79741     -33385.861      133            0.0075412083  -14044.467      439.79261     -13604.675    
     29000   351.52094     -33232.018      135            0.0076546099  -14057.99       443.22665     -13614.764    
     30000   356.6846      -33420.408      136            0.0077113107  -14062.974      449.73742     -13613.237    
     31000   363.18457     -33076.95       149            0.0084484213  -14129.045      457.93312     -13671.112    
     32000   357.39658     -33011.209      144            0.0081649172  -14112.466      450.63514     -13661.831    
     33000   363.77609     -33105.949      145            0.008221618   -14125.453      458.67896     -13666.774    
     34000   360.64754     -33114.782      142            0.0080515156  -14109.919      454.73423     -13655.184    
     35000   360.63909     -33005.214      146            0.0082783188  -14123.011      454.72357     -13668.287    
     36000   364.21035     -33055.998      150            0.0085051221  -14162.782      459.22651     -13703.555    
     37000   359.81921     -33060.384      144            0.0081649172  -14130.495      453.6898      -13676.805    
     38000   364.74297     -33035.887      148            0.0083917205  -14153.431      459.89808     -13693.533    
     39000   358.97376     -32955.068      141            0.0079948148  -14121.587      452.62379     -13668.964    
     40000   367.56694     -32895.362      147            0.0083350197  -14149.397      463.45877     -13685.938    
     41000   373.62954     -32929.974      152            0.0086185237  -14186.007      471.10301     -13714.904    
     42000   372.25047     -33090.462      149            0.0084484213  -14169.622      469.36416     -13700.258    
     43000   372.7298      -32808.539      150            0.0085051221  -14179.887      469.96853     -13709.919    
     44000   370.58849     -32748.646      148            0.0083917205  -14182.453      467.26859     -13715.184    
     45000   380.50224     -32769.205      156            0.008845327   -14226.934      479.76867     -13747.165    
     46000   375.08038     -32714.935      147            0.0083350197  -14180.541      472.93234     -13707.609    
     47000   377.78475     -32828.192      154            0.0087319253  -14221.806      476.34224     -13745.464    
     48000   376.06212     -32844.011      154            0.0087319253  -14228.748      474.1702      -13754.578    
     49000   375.26761     -32977.481      153            0.0086752245  -14220.666      473.16842     -13747.497    
     50000   382.196       -32997.215      159            0.0090154294  -14245.459      481.90431     -13763.555    
     51000   371.30102     -33037.507      153            0.0086752245  -14220.386      468.16702     -13752.219    
     52000   373.04797     -32810.764      152            0.0086185237  -14224.257      470.36971     -13753.888    
     53000   371.07861     -32897.827      154            0.0087319253  -14231.633      467.88658     -13763.747    
     54000   373.14066     -32841.88       158            0.0089587286  -14253.376      470.48659     -13782.889    
     55000   369.98939     -32941.305      155            0.0087886262  -14236.847      466.5132      -13770.334    
     56000   374.68435     -32676.712      161            0.009128831   -14274.279      472.433       -13801.846    
     57000   372.57479     -33036.59       156            0.008845327   -14247.673      469.77309     -13777.9      
     58000   374.58894     -32993.858      159            0.0090154294  -14266.528      472.31269     -13794.215    
     59000   374.382       -33035.61       160            0.0090721302  -14272.703      472.05177     -13800.651    
     60000   378.28933     -32921.866      161            0.009128831   -14278.456      476.97846     -13801.478    
     61000   379.82787     -33116.245      164            0.0092989335  -14297.267      478.91837     -13818.349    
     62000   379.26528     -32937.633      159            0.0090154294  -14264.568      478.20902     -13786.359    
     63000   379.67102     -32908.942      157            0.0089020278  -14251.823      478.7206      -13773.102    
     64000   375.48976     -33161.014      152            0.0086185237  -14230.074      473.44852     -13756.625    
     65000   379.3136      -33216.56       155            0.0087886262  -14241.533      478.26994     -13763.263    
     66000   377.584       -33230.875      158            0.0089587286  -14265.571      476.08911     -13789.482    
     67000   376.22258     -33186.434      157            0.0089020278  -14249.865      474.37253     -13775.492    
     68000   376.66448     -33199.131      155            0.0087886262  -14249.212      474.92971     -13774.282    
     69000   375.38176     -33208.439      159            0.0090154294  -14263.837      473.31235     -13790.525    
     70000   373.77727     -33031.639      158            0.0089587286  -14257.915      471.28927     -13786.625    
     71000   375.98306     -33065.362      155            0.0087886262  -14247.316      474.07051     -13773.246    
     72000   382.12651     -33003.172      163            0.0092422327  -14291.405      481.81668     -13809.588    
     73000   381.11213     -33267.834      159            0.0090154294  -14260.948      480.53767     -13780.411    
     74000   371.64221     -33393.964      152            0.0086185237  -14232.934      468.59722     -13764.337    
     75000   384.80015     -33201.168      160            0.0090721302  -14264.093      485.18783     -13778.905    
     76000   378.99909     -33296.294      156            0.008845327   -14255.898      477.87338     -13778.024    
     77000   378.87675     -33237.153      156            0.008845327   -14263.002      477.71912     -13785.283    
     78000   381.68502     -33208.105      160            0.0090721302  -14295.124      481.26002     -13813.864    
     79000   382.81788     -33214.937      161            0.009128831   -14302.697      482.68842     -13820.008    
     80000   387.0579      -32973.261      165            0.0093556343  -14329.428      488.0346      -13841.394    
     81000   385.54166     -32956.971      166            0.0094123351  -14327.263      486.1228      -13841.14     
     82000   387.21654     -32668.216      165            0.0093556343  -14318.739      488.23462     -13830.505    
     83000   381.80988     -32670.893      164            0.0092989335  -14321.342      481.41745     -13839.925    
     84000   384.09578     -32895.505      162            0.0091855319  -14310.601      484.2997      -13826.302    
     85000   378.72705     -32889.129      157            0.0089020278  -14278.491      477.53036     -13800.961    
     86000   375.98654     -32896.156      157            0.0089020278  -14270.625      474.07491     -13796.55     
     87000   375.87895     -32962.568      158            0.0089587286  -14278.697      473.93925     -13804.757    
     88000   381.49108     -32574.756      161            0.009128831   -14288.154      481.01549     -13807.138    
     89000   386.18732     -32696.146      163            0.0092422327  -14307.991      486.93689     -13821.054    
     90000   389.08231     -32586.087      166            0.0094123351  -14326.488      490.58714     -13835.901    
     91000   387.48365     -32652.381      168            0.0095257367  -14339.406      488.57141     -13850.835    
     92000   380.48506     -32641.251      163            0.0092422327  -14310.387      479.74701     -13830.64     
     93000   388.75387     -32589.308      170            0.0096391384  -14357.165      490.17301     -13866.992    
     94000   386.45622     -32660.909      170            0.0096391384  -14353.563      487.27594     -13866.287    
     95000   385.47256     -32893.236      164            0.0092989335  -14319.808      486.03566     -13833.773    
     96000   386.03469     -32911.519      164            0.0092989335  -14316.488      486.74445     -13829.744    
     97000   383.61102     -32976.24       163            0.0092422327  -14311.237      483.68848     -13827.548    
     98000   386.88571     -32971.179      162            0.0091855319  -14310.043      487.81748     -13822.226    
     99000   384.11416     -33023.238      159            0.0090154294  -14301.831      484.32289     -13817.508    
    100000   386.13325     -32978.752      162            0.0091855319  -14320.395      486.86872     -13833.527    
    101000   390.43098     -32866.633      167            0.0094690359  -14339.916      492.28765     -13847.629    
    102000   388.24872     -32905.837      164            0.0092989335  -14320.716      489.53608     -13831.18     
    103000   388.27031     -32871.257      162            0.0091855319  -14311.881      489.5633      -13822.318    
    104000   384.91238     -32956.712      159            0.0090154294  -14306.621      485.32934     -13821.292    
    105000   381.81774     -33055.551      158            0.0089587286  -14296.523      481.42737     -13815.095    
    106000   382.0476      -33017.088      159            0.0090154294  -14300.163      481.71719     -13818.446    
    107000   381.5889      -33039.7        162            0.0091855319  -14313.088      481.13882     -13831.949    
    108000   381.93162     -32942.302      161            0.009128831   -14301.516      481.57096     -13819.945    
    109000   378.62359     -32944.907      159            0.0090154294  -14291.607      477.39992     -13814.207    
    110000   370.57095     -33168.868      153            0.0086752245  -14262.651      467.24648     -13795.404    
Loop time of 2075.68 on 20 procs for 100000 steps with 883 atoms

Performance: 4.162 ns/day, 5.766 hours/ns, 48.177 timesteps/s, 42.540 katom-step/s
100.0% CPU use with 20 MPI tasks x no OpenMP threads

MPI task timing breakdown:
Section |  min time  |  avg time  |  max time  |%varavg| %total
---------------------------------------------------------------
Pair    | 5.273      | 10.328     | 17.311     | 111.4 |  0.50
Bond    | 0.090743   | 0.40726    | 0.75645    |  28.1 |  0.02
Kspace  | 13.1       | 20.103     | 25.173     |  79.8 |  0.97
Neigh   | 1.3132     | 1.3415     | 1.3682     |   1.4 |  0.06
Comm    | 6.9098     | 7.6843     | 8.4053     |  14.2 |  0.37
Output  | 0.093236   | 0.15821    | 0.20025    |   7.1 |  0.01
Modify  | 2034.7     | 2034.8     | 2034.9     |   0.1 | 98.03
Other   |            | 0.8881     |            |       |  0.04

Nlocal:          44.15 ave          58 max          28 min
Histogram: 3 1 0 3 1 1 3 2 4 2
Nghost:         2999.1 ave        3147 max        2774 min
Histogram: 1 1 4 1 1 0 1 1 7 3
Neighs:        12546.2 ave       16552 max        7996 min
Histogram: 3 1 1 2 1 1 5 2 2 2

Total # of neighbors = 250925
Ave neighs/atom = 284.17327
Ave special neighs/atom = 7.2548131
Neighbor list builds = 1001992
Dangerous builds = 0

# --- Завершение ---
print "GCMC simulation finished." 
GCMC simulation finished.
Total wall time: 0:34:37
