LAMMPS (29 Sep 2021 - Update 2)
OMP_NUM_THREADS environment is not set. Defaulting to 1 thread. (src/comm.cpp:98)
  using 1 OpenMP thread(s) per MPI task
units           real
atom_style      full
boundary        p p p

bond_style morse
bond_style harmonic
angle_style harmonic
angle_style cosine
# angle_style cosine/periodic
dihedral_style charmm
improper_style umbrella
# pair_style buck
pair_style buck/coul/cut
ERROR: Illegal pair_style command (src/pair_buck_coul_cut.cpp:199)
Last command: pair_style buck/coul/cut
